$*$$$$$$$$$$$$$$$$$$$$$$$$$$$$$$$$$$$$$$$$$$$$$$$$$$$$$$$$$$$$$$$$$
$*
$*                    NX v10.0.0.24 TRANSLATOR
$*                    FOR NX NASTRAN VERSION 10.0
$*
$*             FEM FILE: C:\Users\Admin\Desktop\МГТУ\7 СЕМЕСТР\Приложения САПР\MM\Лаб1\kronsht_fem1.fem
$*             SIM FILE: C:\Users\Admin\Desktop\МГТУ\7 СЕМЕСТР\Приложения САПР\MM\Лаб1\kronsht_sim1.sim
$*        ANALYSIS TYPE: Structural
$*        SOLUTION NAME: Solution 1
$*        SOLUTION TYPE: SOL 101 Linear Statics - Global Constraints
$*
$*    SOLVER INPUT FILE: kronsht_sim1-solution_1.dat
$*        CREATION DATE: 12-Jan-2023
$*        CREATION TIME: 18:36:18
$*             HOSTNAME: LAPTOP-40LJOQCU
$*      NASTRAN LICENSE: Desktop Bundle
$*
$*                UNITS: mm (milli-newton)
$*                      ... LENGTH : mm
$*                      ... TIME   : sec
$*                      ... MASS   : kilogram (kg)
$*                      ... TEMPERATURE : deg Celsius
$*                      ... FORCE  : milli-newton
$*                      ... THERMAL ENERGY : mN-mm (micro-joule)
$*
$* Важное замечание:
$*     Эта надпись сгенерирована NX и изменяет эту информацию.
$*     может затронуть результаты постпроцессора NX.
$*
$*$$$$$$$$$$$$$$$$$$$$$$$$$$$$$$$$$$$$$$$$$$$$$$$$$$$$$$$$$$$$$$$$$
$*
$*$$$$$$$$$$$$$$$$$$$$$$$$$$$$$$$$$$$
$*
$* FILE MANAGEMENT
$*
$*$$$$$$$$$$$$$$$$$$$$$$$$$$$$$$$$$$$
$*
$*
$*$$$$$$$$$$$$$$$$$$$$$$$$$$$$$$$$$$$
$*
$* EXECUTIVE CONTROL
$*
$*$$$$$$$$$$$$$$$$$$$$$$$$$$$$$$$$$$$
$*
ID,NASTRAN,kronsht_sim1-solution_1
SOL 101
CEND
$*
$*$$$$$$$$$$$$$$$$$$$$$$$$$$$$$$$$$$$
$*
$* CASE CONTROL
$*
$*$$$$$$$$$$$$$$$$$$$$$$$$$$$$$$$$$$$
$*
ECHO = NONE
SPC = 1
OUTPUT
DISPLACEMENT(PLOT,REAL) = ALL
SPCFORCES(PLOT,REAL) = ALL
STRESS(PLOT,REAL,VONMISES,CENTER) = ALL
$*  NX Step: Subcase - Static Loads 1
SUBCASE 1
LABEL = Subcase - Static Loads 1
LOAD = 2
$*
$*$$$$$$$$$$$$$$$$$$$$$$$$$$$$$$$$$$$
$*
$* BULK DATA
$*
$*$$$$$$$$$$$$$$$$$$$$$$$$$$$$$$$$$$$
$*
BEGIN BULK
$*
$* PARAM CARDS
$*
PARAM      K6ROT100.0000
PARAM     OIBULK     YES
PARAM    OMACHPR     YES
PARAM       POST      -2
PARAM    POSTEXT     YES
PARAM    UNITSYS   MN-MM
$*
$* GRID CARDS
$*
GRID*               5908               0-3.000000000E+011.5000000000E+01+
*       0.0000000000E+00               0
GRID*               5909               0-3.000000000E+010.0000000000E+00+
*       0.0000000000E+00               0
GRID*               5910               0-1.675987625E+010.0000000000E+00+
*       5.2384414673E+01               0
GRID*               5911               0-1.675987625E+011.5000000000E+01+
*       5.2384414673E+01               0
GRID*               5912               07.5000000000E+00-2.000000000E+01+
*       5.1820022583E+01               0
GRID*               5913               07.5000000000E+000.0000000000E+00+
*       5.1820022583E+01               0
GRID*               5914               03.0000000000E+010.0000000000E+00+
*       -7.236922108E-14               0
GRID*               5915               01.6759876251E+010.0000000000E+00+
*       5.2384414673E+01               0
GRID*               5916               03.0000000000E+011.5000000000E+01+
*       -7.236922108E-14               0
GRID*               5917               01.6759876251E+011.5000000000E+01+
*       5.2384414673E+01               0
GRID*               5619               0-3.000000000E+011.3125000000E+01+
*       0.0000000000E+00               0
GRID*               5620               0-3.000000000E+011.1250000000E+01+
*       0.0000000000E+00               0
GRID*               5621               0-3.000000000E+019.3750000000E+00+
*       0.0000000000E+00               0
GRID*               5622               0-3.000000000E+017.5000000000E+00+
*       0.0000000000E+00               0
GRID*               5623               0-3.000000000E+015.6250000000E+00+
*       0.0000000000E+00               0
GRID*               5624               0-3.000000000E+013.7500000000E+00+
*       0.0000000000E+00               0
GRID*               5625               0-3.000000000E+011.8750000000E+00+
*       0.0000000000E+00               0
GRID*               5626               0-1.725025121E+010.0000000000E+00+
*       5.0444251168E+01               0
GRID*               5627               0-1.774062617E+010.0000000000E+00+
*       4.8504087662E+01               0
GRID*               5628               0-1.823100112E+010.0000000000E+00+
*       4.6563924156E+01               0
GRID*               5629               0-1.872137608E+010.0000000000E+00+
*       4.4623760650E+01               0
GRID*               5630               0-1.921175102E+010.0000000000E+00+
*       4.2683597141E+01               0
GRID*               5631               0-1.970212599E+010.0000000000E+00+
*       4.0743433638E+01               0
GRID*               5632               0-2.019250094E+010.0000000000E+00+
*       3.8803270131E+01               0
GRID*               5633               0-2.068287588E+010.0000000000E+00+
*       3.6863106622E+01               0
GRID*               5634               0-2.117325084E+010.0000000000E+00+
*       3.4922943118E+01               0
GRID*               5635               0-2.166362579E+010.0000000000E+00+
*       3.2982779609E+01               0
GRID*               5636               0-2.215400074E+010.0000000000E+00+
*       3.1042616102E+01               0
GRID*               5637               0-2.264437570E+010.0000000000E+00+
*       2.9102452597E+01               0
GRID*               5638               0-2.313475065E+010.0000000000E+00+
*       2.7162289090E+01               0
GRID*               5639               0-2.362512560E+010.0000000000E+00+
*       2.5222125583E+01               0
GRID*               5640               0-2.411550055E+010.0000000000E+00+
*       2.3281962076E+01               0
GRID*               5641               0-2.460587551E+010.0000000000E+00+
*       2.1341798570E+01               0
GRID*               5642               0-2.509625046E+010.0000000000E+00+
*       1.9401635064E+01               0
GRID*               5643               0-2.558662541E+010.0000000000E+00+
*       1.7461471555E+01               0
GRID*               5644               0-2.607700036E+010.0000000000E+00+
*       1.5521308048E+01               0
GRID*               5645               0-2.656737531E+010.0000000000E+00+
*       1.3581144542E+01               0
GRID*               5646               0-2.705775028E+010.0000000000E+00+
*       1.1640981038E+01               0
GRID*               5647               0-2.754812523E+010.0000000000E+00+
*       9.7008175320E+00               0
GRID*               5648               0-2.803850017E+010.0000000000E+00+
*       7.7606540226E+00               0
GRID*               5649               0-2.852887513E+010.0000000000E+00+
*       5.8204905166E+00               0
GRID*               5650               0-2.901925008E+010.0000000000E+00+
*       3.8803270108E+00               0
GRID*               5651               0-2.950962504E+010.0000000000E+00+
*       1.9401635053E+00               0
GRID*               5652               0-1.725025121E+011.5000000000E+01+
*       5.0444251168E+01               0
GRID*               5653               0-1.774062617E+011.5000000000E+01+
*       4.8504087662E+01               0
GRID*               5654               0-1.823100112E+011.5000000000E+01+
*       4.6563924156E+01               0
GRID*               5655               0-1.872137608E+011.5000000000E+01+
*       4.4623760650E+01               0
GRID*               5656               0-1.921175102E+011.5000000000E+01+
*       4.2683597141E+01               0
GRID*               5657               0-1.970212599E+011.5000000000E+01+
*       4.0743433638E+01               0
GRID*               5658               0-2.019250094E+011.5000000000E+01+
*       3.8803270131E+01               0
GRID*               5659               0-2.068287588E+011.5000000000E+01+
*       3.6863106622E+01               0
GRID*               5660               0-2.117325084E+011.5000000000E+01+
*       3.4922943118E+01               0
GRID*               5661               0-2.166362579E+011.5000000000E+01+
*       3.2982779609E+01               0
GRID*               5662               0-2.215400074E+011.5000000000E+01+
*       3.1042616102E+01               0
GRID*               5663               0-2.264437570E+011.5000000000E+01+
*       2.9102452597E+01               0
GRID*               5664               0-2.313475065E+011.5000000000E+01+
*       2.7162289090E+01               0
GRID*               5665               0-2.362512560E+011.5000000000E+01+
*       2.5222125583E+01               0
GRID*               5666               0-2.411550055E+011.5000000000E+01+
*       2.3281962076E+01               0
GRID*               5667               0-2.460587551E+011.5000000000E+01+
*       2.1341798570E+01               0
GRID*               5668               0-2.509625046E+011.5000000000E+01+
*       1.9401635064E+01               0
GRID*               5669               0-2.558662541E+011.5000000000E+01+
*       1.7461471555E+01               0
GRID*               5670               0-2.607700036E+011.5000000000E+01+
*       1.5521308048E+01               0
GRID*               5671               0-2.656737531E+011.5000000000E+01+
*       1.3581144542E+01               0
GRID*               5672               0-2.705775028E+011.5000000000E+01+
*       1.1640981038E+01               0
GRID*               5673               0-2.754812523E+011.5000000000E+01+
*       9.7008175320E+00               0
GRID*               5674               0-2.803850017E+011.5000000000E+01+
*       7.7606540226E+00               0
GRID*               5675               0-2.852887513E+011.5000000000E+01+
*       5.8204905166E+00               0
GRID*               5676               0-2.901925008E+011.5000000000E+01+
*       3.8803270108E+00               0
GRID*               5677               0-2.950962504E+011.5000000000E+01+
*       1.9401635053E+00               0
GRID*               5678               0-1.675987625E+011.3125000000E+01+
*       5.2384414673E+01               0
GRID*               5679               0-1.675987625E+011.1250000000E+01+
*       5.2384414673E+01               0
GRID*               5680               0-1.675987625E+019.3750000000E+00+
*       5.2384414673E+01               0
GRID*               5681               0-1.675987625E+017.5000000000E+00+
*       5.2384414673E+01               0
GRID*               5682               0-1.675987625E+015.6250000000E+00+
*       5.2384414673E+01               0
GRID*               5683               0-1.675987625E+013.7500000000E+00+
*       5.2384414673E+01               0
GRID*               5684               0-1.675987625E+011.8750000000E+00+
*       5.2384414673E+01               0
GRID*               5685               07.2444287270E+00-2.000000000E+01+
*       5.3761160370E+01               0
GRID*               5686               06.4951562202E+00-2.000000000E+01+
*       5.5570001578E+01               0
GRID*               5687               05.3032643552E+00-2.000000000E+01+
*       5.7123287519E+01               0
GRID*               5688               03.7499766268E+00-2.000000000E+01+
*       5.8315177550E+01               0
GRID*               5689               01.9411357363E+00-2.000000000E+01+
*       5.9064451120E+01               0
GRID*               5690               0-2.427108269E-06-2.000000000E+01+
*       5.9320018768E+01               0
GRID*               5691               0-1.941140425E+00-2.000000000E+01+
*       5.9064449864E+01               0
GRID*               5692               0-3.749980831E+00-2.000000000E+01+
*       5.8315175123E+01               0
GRID*               5693               0-5.303267788E+00-2.000000000E+01+
*       5.7123284086E+01               0
GRID*               5694               0-6.495158648E+00-2.000000000E+01+
*       5.5569997374E+01               0
GRID*               5695               0-7.244429984E+00-2.000000000E+01+
*       5.3761155681E+01               0
GRID*               5696               0-7.500000000E+00-2.000000000E+01+
*       5.1820017729E+01               0
GRID*               5697               0-7.244428460E+00-2.000000000E+01+
*       4.9878879961E+01               0
GRID*               5698               0-6.495156028E+00-2.000000000E+01+
*       4.8070038745E+01               0
GRID*               5699               0-5.303263984E+00-2.000000000E+01+
*       4.6516752663E+01               0
GRID*               5700               0-3.749976768E+00-2.000000000E+01+
*       4.5324862416E+01               0
GRID*               5701               0-1.941135343E+00-2.000000000E+01+
*       4.4575590043E+01               0
GRID*               5702               02.4271084645E-06-2.000000000E+01+
*       4.4320018768E+01               0
GRID*               5703               01.9411400318E+00-2.000000000E+01+
*       4.4575591300E+01               0
GRID*               5704               03.7499809713E+00-2.000000000E+01+
*       4.5324864843E+01               0
GRID*               5705               05.3032674162E+00-2.000000000E+01+
*       4.6516756096E+01               0
GRID*               5706               06.4951584552E+00-2.000000000E+01+
*       4.8070042948E+01               0
GRID*               5707               07.2444297165E+00-2.000000000E+01+
*       4.9878884649E+01               0
GRID*               5708               07.2444287270E+000.0000000000E+00+
*       5.3761160370E+01               0
GRID*               5709               06.4951562202E+000.0000000000E+00+
*       5.5570001578E+01               0
GRID*               5710               05.3032643552E+000.0000000000E+00+
*       5.7123287519E+01               0
GRID*               5711               03.7499766268E+000.0000000000E+00+
*       5.8315177550E+01               0
GRID*               5712               01.9411357363E+000.0000000000E+00+
*       5.9064451120E+01               0
GRID*               5713               0-2.427108269E-060.0000000000E+00+
*       5.9320018768E+01               0
GRID*               5714               0-1.941140425E+000.0000000000E+00+
*       5.9064449864E+01               0
GRID*               5715               0-3.749980831E+000.0000000000E+00+
*       5.8315175123E+01               0
GRID*               5716               0-5.303267788E+000.0000000000E+00+
*       5.7123284086E+01               0
GRID*               5717               0-6.495158648E+000.0000000000E+00+
*       5.5569997374E+01               0
GRID*               5718               0-7.244429984E+000.0000000000E+00+
*       5.3761155681E+01               0
GRID*               5719               0-7.500000000E+000.0000000000E+00+
*       5.1820017729E+01               0
GRID*               5720               0-7.244428460E+000.0000000000E+00+
*       4.9878879961E+01               0
GRID*               5721               0-6.495156028E+000.0000000000E+00+
*       4.8070038745E+01               0
GRID*               5722               0-5.303263984E+000.0000000000E+00+
*       4.6516752663E+01               0
GRID*               5723               0-3.749976768E+000.0000000000E+00+
*       4.5324862416E+01               0
GRID*               5724               0-1.941135343E+000.0000000000E+00+
*       4.4575590043E+01               0
GRID*               5725               02.4271084640E-060.0000000000E+00+
*       4.4320018768E+01               0
GRID*               5726               01.9411400318E+000.0000000000E+00+
*       4.4575591300E+01               0
GRID*               5727               03.7499809713E+000.0000000000E+00+
*       4.5324864843E+01               0
GRID*               5728               05.3032674162E+000.0000000000E+00+
*       4.6516756096E+01               0
GRID*               5729               06.4951584552E+000.0000000000E+00+
*       4.8070042948E+01               0
GRID*               5730               07.2444297165E+000.0000000000E+00+
*       4.9878884649E+01               0
GRID*               5731               0-2.800000000E+010.0000000000E+00+
*       -4.588744888E-15               0
GRID*               5732               0-2.600000000E+010.0000000000E+00+
*       -8.727192359E-15               0
GRID*               5733               0-2.400000000E+010.0000000000E+00+
*       -1.244750651E-14               0
GRID*               5734               0-2.200000000E+010.0000000000E+00+
*       -1.578185145E-14               0
GRID*               5735               0-2.000000000E+010.0000000000E+00+
*       -1.876239128E-14               0
GRID*               5736               0-1.800000000E+010.0000000000E+00+
*       -2.142129009E-14               0
GRID*               5737               0-1.600000000E+010.0000000000E+00+
*       -2.379071199E-14               0
GRID*               5738               0-1.400000000E+010.0000000000E+00+
*       -2.590282108E-14               0
GRID*               5739               0-1.200000000E+010.0000000000E+00+
*       -2.778978146E-14               0
GRID*               5740               0-1.000000000E+010.0000000000E+00+
*       -2.948375724E-14               0
GRID*               5741               0-8.000000000E+000.0000000000E+00+
*       -3.101691250E-14               0
GRID*               5742               0-6.000000000E+000.0000000000E+00+
*       -3.242141137E-14               0
GRID*               5743               0-4.000000000E+000.0000000000E+00+
*       -3.372941793E-14               0
GRID*               5744               0-2.000000000E+000.0000000000E+00+
*       -3.497309628E-14               0
GRID*               5745               00.0000000000E+000.0000000000E+00+
*       -3.618461054E-14               0
GRID*               5746               02.0000000000E+000.0000000000E+00+
*       -3.739612479E-14               0
GRID*               5747               04.0000000000E+000.0000000000E+00+
*       -3.863980315E-14               0
GRID*               5748               06.0000000000E+000.0000000000E+00+
*       -3.994780971E-14               0
GRID*               5749               08.0000000000E+000.0000000000E+00+
*       -4.135230857E-14               0
GRID*               5750               01.0000000000E+010.0000000000E+00+
*       -4.288546384E-14               0
GRID*               5751               01.2000000000E+010.0000000000E+00+
*       -4.457943961E-14               0
GRID*               5752               01.4000000000E+010.0000000000E+00+
*       -4.646640000E-14               0
GRID*               5753               01.6000000000E+010.0000000000E+00+
*       -4.857850909E-14               0
GRID*               5754               01.8000000000E+010.0000000000E+00+
*       -5.094793099E-14               0
GRID*               5755               02.0000000000E+010.0000000000E+00+
*       -5.360682980E-14               0
GRID*               5756               02.2000000000E+010.0000000000E+00+
*       -5.658736962E-14               0
GRID*               5757               02.4000000000E+010.0000000000E+00+
*       -5.992171456E-14               0
GRID*               5758               02.6000000000E+010.0000000000E+00+
*       -6.364202872E-14               0
GRID*               5759               02.8000000000E+010.0000000000E+00+
*       -6.778047619E-14               0
GRID*               5760               01.6162701355E+010.0000000000E+00+
*       5.4280600169E+01               0
GRID*               5761               01.5351775139E+010.0000000000E+00+
*       5.6095683992E+01               0
GRID*               5762               01.4337833715E+010.0000000000E+00+
*       5.7805669408E+01               0
GRID*               5763               01.3134280051E+010.0000000000E+00+
*       5.9387943811E+01               0
GRID*               5764               01.1757016878E+010.0000000000E+00+
*       6.0821570049E+01               0
GRID*               5765               01.0224256621E+010.0000000000E+00+
*       6.2087579986E+01               0
GRID*               5766               08.5562858404E+000.0000000000E+00+
*       6.3169245955E+01               0
GRID*               5767               06.7751647093E+000.0000000000E+00+
*       6.4052273282E+01               0
GRID*               5768               04.9044422052E+000.0000000000E+00+
*       6.4724979368E+01               0
GRID*               5769               02.9688504886E+000.0000000000E+00+
*       6.5178435392E+01               0
GRID*               5770               09.9399783410E-010.0000000000E+00+
*       6.5406666398E+01               0
GRID*               5771               0-9.939978341E-010.0000000000E+00+
*       6.5406666398E+01               0
GRID*               5772               0-2.968850489E+000.0000000000E+00+
*       6.5178435392E+01               0
GRID*               5773               0-4.904442205E+000.0000000000E+00+
*       6.4724979368E+01               0
GRID*               5774               0-6.775164709E+000.0000000000E+00+
*       6.4052273282E+01               0
GRID*               5775               0-8.556285840E+000.0000000000E+00+
*       6.3169245955E+01               0
GRID*               5776               0-1.022425662E+010.0000000000E+00+
*       6.2087579986E+01               0
GRID*               5777               0-1.175701688E+010.0000000000E+00+
*       6.0821570049E+01               0
GRID*               5778               0-1.313428005E+010.0000000000E+00+
*       5.9387943811E+01               0
GRID*               5779               0-1.433783372E+010.0000000000E+00+
*       5.7805669408E+01               0
GRID*               5780               0-1.535177514E+010.0000000000E+00+
*       5.6095683992E+01               0
GRID*               5781               0-1.616270135E+010.0000000000E+00+
*       5.4280600169E+01               0
GRID*               5782               0-2.800000000E+011.5000000000E+01+
*       -4.588744888E-15               0
GRID*               5783               0-2.600000000E+011.5000000000E+01+
*       -8.727192359E-15               0
GRID*               5784               0-2.400000000E+011.5000000000E+01+
*       -1.244750651E-14               0
GRID*               5785               0-2.200000000E+011.5000000000E+01+
*       -1.578185145E-14               0
GRID*               5786               0-2.000000000E+011.5000000000E+01+
*       -1.876239128E-14               0
GRID*               5787               0-1.800000000E+011.5000000000E+01+
*       -2.142129009E-14               0
GRID*               5788               0-1.600000000E+011.5000000000E+01+
*       -2.379071199E-14               0
GRID*               5789               0-1.400000000E+011.5000000000E+01+
*       -2.590282108E-14               0
GRID*               5790               0-1.200000000E+011.5000000000E+01+
*       -2.778978146E-14               0
GRID*               5791               0-1.000000000E+011.5000000000E+01+
*       -2.948375724E-14               0
GRID*               5792               0-8.000000000E+001.5000000000E+01+
*       -3.101691250E-14               0
GRID*               5793               0-6.000000000E+001.5000000000E+01+
*       -3.242141137E-14               0
GRID*               5794               0-4.000000000E+001.5000000000E+01+
*       -3.372941793E-14               0
GRID*               5795               0-2.000000000E+001.5000000000E+01+
*       -3.497309628E-14               0
GRID*               5796               00.0000000000E+001.5000000000E+01+
*       -3.618461054E-14               0
GRID*               5797               02.0000000000E+001.5000000000E+01+
*       -3.739612479E-14               0
GRID*               5798               04.0000000000E+001.5000000000E+01+
*       -3.863980315E-14               0
GRID*               5799               06.0000000000E+001.5000000000E+01+
*       -3.994780971E-14               0
GRID*               5800               08.0000000000E+001.5000000000E+01+
*       -4.135230857E-14               0
GRID*               5801               01.0000000000E+011.5000000000E+01+
*       -4.288546384E-14               0
GRID*               5802               01.2000000000E+011.5000000000E+01+
*       -4.457943961E-14               0
GRID*               5803               01.4000000000E+011.5000000000E+01+
*       -4.646640000E-14               0
GRID*               5804               01.6000000000E+011.5000000000E+01+
*       -4.857850909E-14               0
GRID*               5805               01.8000000000E+011.5000000000E+01+
*       -5.094793099E-14               0
GRID*               5806               02.0000000000E+011.5000000000E+01+
*       -5.360682980E-14               0
GRID*               5807               02.2000000000E+011.5000000000E+01+
*       -5.658736962E-14               0
GRID*               5808               02.4000000000E+011.5000000000E+01+
*       -5.992171456E-14               0
GRID*               5809               02.6000000000E+011.5000000000E+01+
*       -6.364202872E-14               0
GRID*               5810               02.8000000000E+011.5000000000E+01+
*       -6.778047619E-14               0
GRID*               5811               01.6162701355E+011.5000000000E+01+
*       5.4280600169E+01               0
GRID*               5812               01.5351775139E+011.5000000000E+01+
*       5.6095683992E+01               0
GRID*               5813               01.4337833715E+011.5000000000E+01+
*       5.7805669408E+01               0
GRID*               5814               01.3134280051E+011.5000000000E+01+
*       5.9387943811E+01               0
GRID*               5815               01.1757016878E+011.5000000000E+01+
*       6.0821570049E+01               0
GRID*               5816               01.0224256621E+011.5000000000E+01+
*       6.2087579986E+01               0
GRID*               5817               08.5562858404E+001.5000000000E+01+
*       6.3169245955E+01               0
GRID*               5818               06.7751647093E+001.5000000000E+01+
*       6.4052273282E+01               0
GRID*               5819               04.9044422052E+001.5000000000E+01+
*       6.4724979368E+01               0
GRID*               5820               02.9688504886E+001.5000000000E+01+
*       6.5178435392E+01               0
GRID*               5821               09.9399783410E-011.5000000000E+01+
*       6.5406666398E+01               0
GRID*               5822               0-9.939978341E-011.5000000000E+01+
*       6.5406666398E+01               0
GRID*               5823               0-2.968850489E+001.5000000000E+01+
*       6.5178435392E+01               0
GRID*               5824               0-4.904442205E+001.5000000000E+01+
*       6.4724979368E+01               0
GRID*               5825               0-6.775164709E+001.5000000000E+01+
*       6.4052273282E+01               0
GRID*               5826               0-8.556285840E+001.5000000000E+01+
*       6.3169245955E+01               0
GRID*               5827               0-1.022425662E+011.5000000000E+01+
*       6.2087579986E+01               0
GRID*               5828               0-1.175701688E+011.5000000000E+01+
*       6.0821570049E+01               0
GRID*               5829               0-1.313428005E+011.5000000000E+01+
*       5.9387943811E+01               0
GRID*               5830               0-1.433783372E+011.5000000000E+01+
*       5.7805669408E+01               0
GRID*               5831               0-1.535177514E+011.5000000000E+01+
*       5.6095683992E+01               0
GRID*               5832               0-1.616270135E+011.5000000000E+01+
*       5.4280600169E+01               0
GRID*               5833               01.6759876251E+011.3125000000E+01+
*       5.2384414673E+01               0
GRID*               5834               01.6759876251E+011.1250000000E+01+
*       5.2384414673E+01               0
GRID*               5835               01.6759876251E+019.3750000000E+00+
*       5.2384414673E+01               0
GRID*               5836               01.6759876251E+017.5000000000E+00+
*       5.2384414673E+01               0
GRID*               5837               01.6759876251E+015.6250000000E+00+
*       5.2384414673E+01               0
GRID*               5838               01.6759876251E+013.7500000000E+00+
*       5.2384414673E+01               0
GRID*               5839               01.6759876251E+011.8750000000E+00+
*       5.2384414673E+01               0
GRID*               5840               02.9509625046E+010.0000000000E+00+
*       1.9401635064E+00               0
GRID*               5841               02.9019250093E+010.0000000000E+00+
*       3.8803270128E+00               0
GRID*               5842               02.8528875139E+010.0000000000E+00+
*       5.8204905192E+00               0
GRID*               5843               02.8038500185E+010.0000000000E+00+
*       7.7606540256E+00               0
GRID*               5844               02.7548125232E+010.0000000000E+00+
*       9.7008175320E+00               0
GRID*               5845               02.7057750278E+010.0000000000E+00+
*       1.1640981038E+01               0
GRID*               5846               02.6567375324E+010.0000000000E+00+
*       1.3581144545E+01               0
GRID*               5847               02.6077000371E+010.0000000000E+00+
*       1.5521308051E+01               0
GRID*               5848               02.5586625417E+010.0000000000E+00+
*       1.7461471558E+01               0
GRID*               5849               02.5096250455E+010.0000000000E+00+
*       1.9401635062E+01               0
GRID*               5850               02.4605875504E+010.0000000000E+00+
*       2.1341798569E+01               0
GRID*               5851               02.4115500552E+010.0000000000E+00+
*       2.3281962076E+01               0
GRID*               5852               02.3625125602E+010.0000000000E+00+
*       2.5222125583E+01               0
GRID*               5853               02.3134750649E+010.0000000000E+00+
*       2.7162289090E+01               0
GRID*               5854               02.2644375695E+010.0000000000E+00+
*       2.9102452596E+01               0
GRID*               5855               02.2154000741E+010.0000000000E+00+
*       3.1042616102E+01               0
GRID*               5856               02.1663625796E+010.0000000000E+00+
*       3.2982779611E+01               0
GRID*               5857               02.1173250844E+010.0000000000E+00+
*       3.4922943118E+01               0
GRID*               5858               02.0682875892E+010.0000000000E+00+
*       3.6863106624E+01               0
GRID*               5859               02.0192500939E+010.0000000000E+00+
*       3.8803270131E+01               0
GRID*               5860               01.9702125986E+010.0000000000E+00+
*       4.0743433638E+01               0
GRID*               5861               01.9211751020E+010.0000000000E+00+
*       4.2683597141E+01               0
GRID*               5862               01.8721376066E+010.0000000000E+00+
*       4.4623760647E+01               0
GRID*               5863               01.8231001112E+010.0000000000E+00+
*       4.6563924154E+01               0
GRID*               5864               01.7740626159E+010.0000000000E+00+
*       4.8504087660E+01               0
GRID*               5865               01.7250251209E+010.0000000000E+00+
*       5.0444251168E+01               0
GRID*               5866               02.9509625046E+011.5000000000E+01+
*       1.9401635064E+00               0
GRID*               5867               02.9019250093E+011.5000000000E+01+
*       3.8803270128E+00               0
GRID*               5868               02.8528875139E+011.5000000000E+01+
*       5.8204905192E+00               0
GRID*               5869               02.8038500185E+011.5000000000E+01+
*       7.7606540256E+00               0
GRID*               5870               02.7548125232E+011.5000000000E+01+
*       9.7008175320E+00               0
GRID*               5871               02.7057750278E+011.5000000000E+01+
*       1.1640981038E+01               0
GRID*               5872               02.6567375324E+011.5000000000E+01+
*       1.3581144545E+01               0
GRID*               5873               02.6077000371E+011.5000000000E+01+
*       1.5521308051E+01               0
GRID*               5874               02.5586625417E+011.5000000000E+01+
*       1.7461471558E+01               0
GRID*               5875               02.5096250455E+011.5000000000E+01+
*       1.9401635062E+01               0
GRID*               5876               02.4605875504E+011.5000000000E+01+
*       2.1341798569E+01               0
GRID*               5877               02.4115500552E+011.5000000000E+01+
*       2.3281962076E+01               0
GRID*               5878               02.3625125602E+011.5000000000E+01+
*       2.5222125583E+01               0
GRID*               5879               02.3134750649E+011.5000000000E+01+
*       2.7162289090E+01               0
GRID*               5880               02.2644375695E+011.5000000000E+01+
*       2.9102452596E+01               0
GRID*               5881               02.2154000741E+011.5000000000E+01+
*       3.1042616102E+01               0
GRID*               5882               02.1663625796E+011.5000000000E+01+
*       3.2982779611E+01               0
GRID*               5883               02.1173250844E+011.5000000000E+01+
*       3.4922943118E+01               0
GRID*               5884               02.0682875892E+011.5000000000E+01+
*       3.6863106624E+01               0
GRID*               5885               02.0192500939E+011.5000000000E+01+
*       3.8803270131E+01               0
GRID*               5886               01.9702125986E+011.5000000000E+01+
*       4.0743433638E+01               0
GRID*               5887               01.9211751020E+011.5000000000E+01+
*       4.2683597141E+01               0
GRID*               5888               01.8721376066E+011.5000000000E+01+
*       4.4623760647E+01               0
GRID*               5889               01.8231001112E+011.5000000000E+01+
*       4.6563924154E+01               0
GRID*               5890               01.7740626159E+011.5000000000E+01+
*       4.8504087660E+01               0
GRID*               5891               01.7250251209E+011.5000000000E+01+
*       5.0444251168E+01               0
GRID*               5892               03.0000000000E+011.3125000000E+01+
*       -7.236922108E-14               0
GRID*               5893               03.0000000000E+011.1250000000E+01+
*       -7.236922108E-14               0
GRID*               5894               03.0000000000E+019.3750000000E+00+
*       -7.236922108E-14               0
GRID*               5895               03.0000000000E+017.5000000000E+00+
*       -7.236922108E-14               0
GRID*               5896               03.0000000000E+015.6250000000E+00+
*       -7.236922108E-14               0
GRID*               5897               03.0000000000E+013.7500000000E+00+
*       -7.236922108E-14               0
GRID*               5898               03.0000000000E+011.8750000000E+00+
*       -7.236922108E-14               0
GRID*               4448               0-1.508333971E+011.5000000000E+01+
*       1.7175194005E+00               0
GRID*               4449               0-1.416580525E+011.5000000000E+01+
*       3.4432186075E+00               0
GRID*               4450               0-1.324853661E+011.5000000000E+01+
*       5.1771946415E+00               0
GRID*               4451               0-1.233144645E+011.5000000000E+01+
*       6.9183266375E+00               0
GRID*               4452               0-1.141401866E+011.5000000000E+01+
*       8.6662775892E+00               0
GRID*               4453               0-1.049539755E+011.5000000000E+01+
*       1.0420204561E+01               0
GRID*               4454               0-9.576137346E+001.5000000000E+01+
*       1.2175542915E+01               0
GRID*               4455               0-8.656604063E+001.5000000000E+01+
*       1.3931098279E+01               0
GRID*               4456               0-7.736678482E+001.5000000000E+01+
*       1.5687025272E+01               0
GRID*               4457               0-6.817748411E+001.5000000000E+01+
*       1.7442463596E+01               0
GRID*               4458               0-5.900868273E+001.5000000000E+01+
*       1.9198609986E+01               0
GRID*               4459               0-4.986470173E+001.5000000000E+01+
*       2.0957021820E+01               0
GRID*               4460               0-4.075679001E+001.5000000000E+01+
*       2.2718468044E+01               0
GRID*               4461               0-3.166818094E+001.5000000000E+01+
*       2.4482944396E+01               0
GRID*               4462               0-2.256964368E+001.5000000000E+01+
*       2.6248765518E+01               0
GRID*               4463               0-1.343394982E+001.5000000000E+01+
*       2.8012277130E+01               0
GRID*               4464               0-4.237049534E-011.5000000000E+01+
*       2.9769480779E+01               0
GRID*               4465               05.0021770299E-011.5000000000E+01+
*       3.1517562448E+01               0
GRID*               4466               01.4235328932E+001.5000000000E+01+
*       3.3256452431E+01               0
GRID*               4467               02.3415414877E+001.5000000000E+01+
*       3.4988089586E+01               0
GRID*               4468               03.2532138021E+001.5000000000E+01+
*       3.6713268243E+01               0
GRID*               4469               04.1613406956E+001.5000000000E+01+
*       3.8431025250E+01               0
GRID*               4470               05.0709773357E+001.5000000000E+01+
*       4.0143446295E+01               0
GRID*               4471               05.9876123216E+001.5000000000E+01+
*       4.1859668919E+01               0
GRID*               4472               06.9118076637E+001.5000000000E+01+
*       4.3591865730E+01               0
GRID*               4473               07.8362852507E+001.5000000000E+01+
*       4.5343541400E+01               0
GRID*               4474               08.7534889825E+001.5000000000E+01+
*       4.7102566666E+01               0
GRID*               4475               09.6656343851E+001.5000000000E+01+
*       4.8855442184E+01               0
GRID*               4476               01.0577691601E+011.5000000000E+01+
*       5.0602188219E+01               0
GRID*               4477               01.1483980869E+011.5000000000E+01+
*       5.2357411592E+01               0
GRID*               4478               01.2385545776E+011.5000000000E+01+
*       5.4135999144E+01               0
GRID*               4479               01.3320871753E+011.5000000000E+01+
*       5.5947248215E+01               0
GRID*               4480               0-1.186093406E+001.5000000000E+01+
*       2.4559693579E+01               0
GRID*               4481               0-1.185297487E-011.5000000000E+01+
*       2.2863869783E+01               0
GRID*               4482               09.4911678805E-011.5000000000E+01+
*       2.1160189019E+01               0
GRID*               4483               02.0268399068E+001.5000000000E+01+
*       1.9448115993E+01               0
GRID*               4484               03.1300612562E+001.5000000000E+01+
*       1.7727115225E+01               0
GRID*               4485               04.2779185764E+001.5000000000E+01+
*       1.5988356177E+01               0
GRID*               4486               05.4907545757E+001.5000000000E+01+
*       1.4195341515E+01               0
GRID*               4487               06.6660757067E+001.5000000000E+01+
*       1.2306446717E+01               0
GRID*               4488               07.7323841448E+001.5000000000E+01+
*       1.0426147544E+01               0
GRID*               4489               08.7741081226E+001.5000000000E+01+
*       8.6235540924E+00               0
GRID*               4490               09.8171394809E+001.5000000000E+01+
*       6.8635614414E+00               0
GRID*               4491               01.0864335033E+011.5000000000E+01+
*       5.1274944418E+00               0
GRID*               4492               01.1912435403E+011.5000000000E+01+
*       3.4067499697E+00               0
GRID*               4493               01.2958509950E+011.5000000000E+01+
*       1.6979545618E+00               0
GRID*               4494               0-5.734029401E+001.5000000000E+01+
*       1.5725275690E+01               0
GRID*               4495               0-4.651007360E+001.5000000000E+01+
*       1.3997751024E+01               0
GRID*               4496               0-3.567949151E+001.5000000000E+01+
*       1.2259402262E+01               0
GRID*               4497               0-2.484089722E+001.5000000000E+01+
*       1.0513118635E+01               0
GRID*               4498               0-1.399710290E+001.5000000000E+01+
*       8.7608922694E+00               0
GRID*               4499               0-3.158878692E-011.5000000000E+01+
*       7.0057815477E+00               0
GRID*               4500               07.6634033378E-011.5000000000E+01+
*       5.2504560628E+00               0
GRID*               4501               01.8466543507E+001.5000000000E+01+
*       3.4969512215E+00               0
GRID*               4502               02.9246729031E+001.5000000000E+01+
*       1.7465119725E+00               0
GRID*               4503               0-8.489229906E+001.5000000000E+01+
*       1.0458116493E+01               0
GRID*               4504               0-7.404930703E+001.5000000000E+01+
*       8.7317981548E+00               0
GRID*               4505               0-6.322575451E+001.5000000000E+01+
*       6.9948216051E+00               0
GRID*               4506               0-5.241423524E+001.5000000000E+01+
*       5.2502341996E+00               0
GRID*               4507               0-4.160749761E+001.5000000000E+01+
*       3.5015999016E+00               0
GRID*               4508               0-3.080195973E+001.5000000000E+01+
*       1.7510853110E+00               0
GRID*               4509               0-1.124623559E+011.5000000000E+01+
*       5.2079799557E+00               0
GRID*               4510               0-1.016316585E+011.5000000000E+01+
*       3.4826933996E+00               0
GRID*               4511               0-9.081299800E+001.5000000000E+01+
*       1.7445927813E+00               0
GRID*               4512               0-1.308287099E+011.5000000000E+01+
*       1.7282868376E+00               0
GRID*               4513               0-1.216492957E+011.5000000000E+01+
*       3.4625693116E+00               0
GRID*               4514               0-1.108225002E+011.5000000000E+01+
*       1.7361323594E+00               0
GRID*               4515               0-8.161655529E+001.5000000000E+01+
*       3.4930480754E+00               0
GRID*               4516               0-7.241990121E+001.5000000000E+01+
*       5.2431283603E+00               0
GRID*               4517               0-7.080777722E+001.5000000000E+01+
*       1.7479492720E+00               0
GRID*               4518               0-5.080440187E+001.5000000000E+01+
*       1.7499982995E+00               0
GRID*               4519               0-6.161215262E+001.5000000000E+01+
*       3.4974772773E+00               0
GRID*               4520               0-9.243788690E+001.5000000000E+01+
*       5.2285097734E+00               0
GRID*               4521               0-8.324397899E+001.5000000000E+01+
*       6.9783997712E+00               0
GRID*               4522               0-9.409319508E+001.5000000000E+01+
*       8.7016829723E+00               0
GRID*               4523               0-1.032839310E+011.5000000000E+01+
*       6.9492001717E+00               0
GRID*               4524               0-2.159823632E+001.5000000000E+01+
*       3.5022503012E+00               0
GRID*               4525               0-1.572045713E-011.5000000000E+01+
*       3.5005776127E+00               0
GRID*               4526               09.2255503327E-011.5000000000E+01+
*       1.7490093466E+00               0
GRID*               4527               0-1.079046845E+001.5000000000E+01+
*       1.7503657358E+00               0
GRID*               4528               0-4.484955092E+001.5000000000E+01+
*       1.0500858585E+01               0
GRID*               4529               0-5.403683327E+001.5000000000E+01+
*       8.7452278121E+00               0
GRID*               4530               0-6.652382183E+001.5000000000E+01+
*       1.3966309396E+01               0
GRID*               4531               0-7.571231404E+001.5000000000E+01+
*       1.2209079001E+01               0
GRID*               4532               0-5.569056884E+001.5000000000E+01+
*       1.2236236423E+01               0
GRID*               4533               0-6.487423364E+001.5000000000E+01+
*       1.0479702469E+01               0
GRID*               4534               0-3.240570766E+001.5000000000E+01+
*       5.2528164573E+00               0
GRID*               4535               0-2.319869629E+001.5000000000E+01+
*       7.0053190030E+00               0
GRID*               4536               0-1.237738190E+001.5000000000E+01+
*       5.2526722478E+00               0
GRID*               4537               0-3.402412039E+001.5000000000E+01+
*       8.7545571920E+00               0
GRID*               4538               0-4.321822571E+001.5000000000E+01+
*       7.0002889151E+00               0
GRID*               4539               01.1458785308E+001.5000000000E+01+
*       1.7645101789E+01               0
GRID*               4540               02.5139346065E-011.5000000000E+01+
*       1.5844342426E+01               0
GRID*               4541               0-6.544077792E-011.5000000000E+01+
*       1.4054367732E+01               0
GRID*               4542               0-1.567321436E+001.5000000000E+01+
*       1.2277939527E+01               0
GRID*               4543               0-1.018524559E+001.5000000000E+01+
*       2.1084755424E+01               0
GRID*               4544               0-2.998604594E+001.5000000000E+01+
*       2.1017816285E+01               0
GRID*               4545               0-2.094578989E+001.5000000000E+01+
*       2.2787998956E+01               0
GRID*               4546               0-8.387945991E-011.5000000000E+01+
*       1.7582915656E+01               0
GRID*               4547               0-1.921442490E+001.5000000000E+01+
*       1.9306592324E+01               0
GRID*               4548               05.7038299249E-021.5000000000E+01+
*       1.9371975530E+01               0
GRID*               4549               0-3.908506906E+001.5000000000E+01+
*       1.9249866641E+01               0
GRID*               4550               0-4.820760489E+001.5000000000E+01+
*       1.7484611324E+01               0
GRID*               4551               0-2.828529161E+001.5000000000E+01+
*       1.7530832801E+01               0
GRID*               4552               0-3.738879016E+001.5000000000E+01+
*       1.5760209819E+01               0
GRID*               4553               0-2.654197165E+001.5000000000E+01+
*       1.4024830752E+01               0
GRID*               4554               0-1.744298535E+001.5000000000E+01+
*       1.5800034603E+01               0
GRID*               4555               04.9290950498E+001.5000000000E+01+
*       1.7408694145E+00               0
GRID*               4556               05.8665453917E+001.5000000000E+01+
*       3.4737374095E+00               0
GRID*               4557               06.8159714098E+001.5000000000E+01+
*       5.1980305348E+00               0
GRID*               4558               07.7848440418E+001.5000000000E+01+
*       6.9153062900E+00               0
GRID*               4559               08.9439828899E+001.5000000000E+01+
*       1.7213058506E+00               0
GRID*               4560               09.8990543688E+001.5000000000E+01+
*       3.4305449687E+00               0
GRID*               4561               01.0952750027E+011.5000000000E+01+
*       1.7091954660E+00               0
GRID*               4562               08.8446808475E+001.5000000000E+01+
*       5.1644913537E+00               0
GRID*               4563               06.9371190926E+001.5000000000E+01+
*       1.7313803484E+00               0
GRID*               4564               07.8852700460E+001.5000000000E+01+
*       3.4526866545E+00               0
GRID*               4565               04.5313872757E+001.5000000000E+01+
*       1.2324754826E+01               0
GRID*               4566               02.4663265713E+001.5000000000E+01+
*       1.2313617742E+01               0
GRID*               4567               04.4146530127E-011.5000000000E+01+
*       1.2297140648E+01               0
GRID*               4568               03.3935060028E+001.5000000000E+01+
*       1.4136064524E+01               0
GRID*               4569               01.3575262069E+001.5000000000E+01+
*       1.4091974908E+01               0
GRID*               4570               02.2591869968E+001.5000000000E+01+
*       1.5907065439E+01               0
GRID*               4571               03.5760609803E+001.5000000000E+01+
*       1.0523420762E+01               0
GRID*               4572               02.6319174106E+001.5000000000E+01+
*       8.7542252294E+00               0
GRID*               4573               01.6968701759E+001.5000000000E+01+
*       6.9993054815E+00               0
GRID*               4574               0-4.778540218E-011.5000000000E+01+
*       1.0522791090E+01               0
GRID*               4575               06.1189166919E-011.5000000000E+01+
*       8.7613871831E+00               0
GRID*               4576               01.5416437128E+001.5000000000E+01+
*       1.0528620502E+01               0
GRID*               4577               05.6483320498E+001.5000000000E+01+
*       1.0498481510E+01               0
GRID*               4578               03.8558611429E+001.5000000000E+01+
*       3.4871041567E+00               0
GRID*               4579               05.7486550702E+001.5000000000E+01+
*       6.9563674731E+00               0
GRID*               4580               04.6735528577E+001.5000000000E+01+
*       8.7332203049E+00               0
GRID*               4581               06.7285285808E+001.5000000000E+01+
*       8.6910313738E+00               0
GRID*               4582               02.7790998509E+001.5000000000E+01+
*       5.2401284704E+00               0
GRID*               4583               04.7975270089E+001.5000000000E+01+
*       5.2225596174E+00               0
GRID*               4584               03.7219020396E+001.5000000000E+01+
*       6.9835773659E+00               0
GRID*               4585               0-2.792488743E-011.5000000000E+01+
*       2.6328256983E+01               0
GRID*               4586               07.8193652992E-011.5000000000E+01+
*       2.4640080060E+01               0
GRID*               4587               01.8430481891E+001.5000000000E+01+
*       2.2946325027E+01               0
GRID*               4588               02.9114634748E+001.5000000000E+01+
*       2.1247355779E+01               0
GRID*               4589               04.0007034468E+001.5000000000E+01+
*       1.9545636461E+01               0
GRID*               4590               05.1324701069E+001.5000000000E+01+
*       1.7844561447E+01               0
GRID*               4591               06.3524178487E+001.5000000000E+01+
*       1.6138667489E+01               0
GRID*               4592               07.8650847526E+001.5000000000E+01+
*       1.4314507893E+01               0
GRID*               4593               08.8257197862E+001.5000000000E+01+
*       1.2164308038E+01               0
GRID*               4594               09.8065747526E+001.5000000000E+01+
*       1.0320120693E+01               0
GRID*               4595               01.0817607512E+011.5000000000E+01+
*       8.5497981951E+00               0
GRID*               4596               01.1846406165E+011.5000000000E+01+
*       6.8117753009E+00               0
GRID*               4597               01.2883860363E+011.5000000000E+01+
*       5.0922712425E+00               0
GRID*               4598               01.3924055780E+011.5000000000E+01+
*       3.3853516942E+00               0
GRID*               4599               01.4963425065E+011.5000000000E+01+
*       1.6882640227E+00               0
GRID*               4600               06.3365551536E-011.5000000000E+01+
*       2.8090529816E+01               0
GRID*               4601               01.6894461765E+001.5000000000E+01+
*       2.6408727766E+01               0
GRID*               4602               02.7444482180E+001.5000000000E+01+
*       2.4722504856E+01               0
GRID*               4603               03.8033087452E+001.5000000000E+01+
*       2.3032272465E+01               0
GRID*               4604               04.8752021458E+001.5000000000E+01+
*       2.1341559950E+01               0
GRID*               4605               05.9738381689E+001.5000000000E+01+
*       1.9659174855E+01               0
GRID*               4606               07.1176533742E+001.5000000000E+01+
*       1.8004895424E+01               0
GRID*               4607               08.3247527244E+001.5000000000E+01+
*       1.6441059714E+01               0
GRID*               4608               09.4815742628E+001.5000000000E+01+
*       1.5276819565E+01               0
GRID*               4609               01.0009911920E+011.5000000000E+01+
*       1.3737097458E+01               0
GRID*               4610               01.0869823874E+011.5000000000E+01+
*       1.1971292155E+01               0
GRID*               4611               01.1834001174E+011.5000000000E+01+
*       1.0215539921E+01               0
GRID*               4612               01.2839039296E+011.5000000000E+01+
*       8.4824142234E+00               0
GRID*               4613               01.3862721533E+011.5000000000E+01+
*       6.7665690871E+00               0
GRID*               4614               01.4894924297E+011.5000000000E+01+
*       5.0628782608E+00               0
GRID*               4615               01.5930525636E+011.5000000000E+01+
*       3.3676267714E+00               0
GRID*               4616               01.6966459672E+011.5000000000E+01+
*       1.6795478364E+00               0
GRID*               4617               01.5522619075E+001.5000000000E+01+
*       2.9844624381E+01               0
GRID*               4618               02.6041375179E+001.5000000000E+01+
*       2.8168248856E+01               0
GRID*               4619               03.6548665733E+001.5000000000E+01+
*       2.6487188730E+01               0
GRID*               4620               04.7065399194E+001.5000000000E+01+
*       2.4801559927E+01               0
GRID*               4621               05.7643777166E+001.5000000000E+01+
*       2.3114452550E+01               0
GRID*               4622               06.8356373439E+001.5000000000E+01+
*       2.1434229022E+01               0
GRID*               4623               07.9263771249E+001.5000000000E+01+
*       1.9777352909E+01               0
GRID*               4624               09.0325940771E+001.5000000000E+01+
*       1.8173848301E+01               0
GRID*               4625               01.0108137229E+011.5000000000E+01+
*       1.6675478523E+01               0
GRID*               4626               01.1038010022E+011.5000000000E+01+
*       1.5181275145E+01               0
GRID*               4627               01.1906216882E+011.5000000000E+01+
*       1.3554335793E+01               0
GRID*               4628               01.2846973452E+011.5000000000E+01+
*       1.1849984954E+01               0
GRID*               4629               01.3832857529E+011.5000000000E+01+
*       1.0135119837E+01               0
GRID*               4630               01.4842440231E+011.5000000000E+01+
*       8.4285025049E+00               0
GRID*               4631               01.5865525445E+011.5000000000E+01+
*       6.7314113475E+00               0
GRID*               4632               01.6897484308E+011.5000000000E+01+
*       5.0399021452E+00               0
GRID*               4633               01.7934121293E+011.5000000000E+01+
*       3.3519854487E+00               0
GRID*               4634               01.8969690475E+011.5000000000E+01+
*       1.6705678878E+00               0
GRID*               4635               02.4728766305E+001.5000000000E+01+
*       3.1590307648E+01               0
GRID*               4636               03.5229688287E+001.5000000000E+01+
*       2.9919283068E+01               0
GRID*               4637               04.5721126044E+001.5000000000E+01+
*       2.8241786528E+01               0
GRID*               4638               05.6203416388E+001.5000000000E+01+
*       2.6557339928E+01               0
GRID*               4639               06.6697013939E+001.5000000000E+01+
*       2.4868567698E+01               0
GRID*               4640               07.7230256690E+001.5000000000E+01+
*       2.3183048137E+01               0
GRID*               4641               08.7815789702E+001.5000000000E+01+
*       2.1514357110E+01               0
GRID*               4642               09.8424007114E+001.5000000000E+01+
*       1.9879871835E+01               0
GRID*               4643               01.0891303085E+011.5000000000E+01+
*       1.8292078979E+01               0
GRID*               4644               01.1899316212E+011.5000000000E+01+
*       1.6727365704E+01               0
GRID*               4645               01.2866120932E+011.5000000000E+01+
*       1.5125777597E+01               0
GRID*               4646               01.3830484103E+011.5000000000E+01+
*       1.3463586184E+01               0
GRID*               4647               01.4813816573E+011.5000000000E+01+
*       1.1770651780E+01               0
GRID*               4648               01.5812705982E+011.5000000000E+01+
*       1.0076941695E+01               0
GRID*               4649               01.6826042499E+011.5000000000E+01+
*       8.3918646100E+00               0
GRID*               4650               01.7855458875E+011.5000000000E+01+
*       6.7098263711E+00               0
GRID*               4651               01.8897033854E+011.5000000000E+01+
*       5.0238323937E+00               0
GRID*               4652               01.9939993993E+011.5000000000E+01+
*       3.3367337240E+00               0
GRID*               4653               02.0975137332E+011.5000000000E+01+
*       1.6594168398E+00               0
GRID*               4654               03.3892365004E+001.5000000000E+01+
*       3.3328175976E+01               0
GRID*               4655               04.4393456582E+001.5000000000E+01+
*       3.1663786380E+01               0
GRID*               4656               05.4900483722E+001.5000000000E+01+
*       2.9990253402E+01               0
GRID*               4657               06.5395283852E+001.5000000000E+01+
*       2.8305074653E+01               0
GRID*               4658               07.5865172281E+001.5000000000E+01+
*       2.6610529104E+01               0
GRID*               4659               08.6299840765E+001.5000000000E+01+
*       2.4914500817E+01               0
GRID*               4660               09.6678949011E+001.5000000000E+01+
*       2.3230394935E+01               0
GRID*               4661               01.0698183156E+011.5000000000E+01+
*       2.1575160539E+01               0
GRID*               4662               01.1723281275E+011.5000000000E+01+
*       1.9959097735E+01               0
GRID*               4663               01.2747111405E+011.5000000000E+01+
*       1.8365039633E+01               0
GRID*               4664               01.3766486936E+011.5000000000E+01+
*       1.6750788110E+01               0
GRID*               4665               01.4775314537E+011.5000000000E+01+
*       1.5091576404E+01               0
GRID*               4666               01.5773702974E+011.5000000000E+01+
*       1.3402000839E+01               0
GRID*               4667               01.6766335937E+011.5000000000E+01+
*       1.1712485292E+01               0
GRID*               4668               01.7765363959E+011.5000000000E+01+
*       1.0041559585E+01               0
GRID*               4669               01.8789267952E+011.5000000000E+01+
*       8.3810280256E+00               0
GRID*               4670               01.9842172910E+011.5000000000E+01+
*       6.7069622121E+00               0
GRID*               4671               02.0905178857E+011.5000000000E+01+
*       5.0115154036E+00               0
GRID*               4672               02.1954707471E+011.5000000000E+01+
*       3.3142271521E+00               0
GRID*               4673               02.2983273407E+011.5000000000E+01+
*       1.6416300342E+00               0
GRID*               4674               01.4339990843E+011.5000000000E+01+
*       5.4209473004E+01               0
GRID*               4675               01.3463263409E+011.5000000000E+01+
*       5.2389737674E+01               0
GRID*               4676               01.2570789808E+011.5000000000E+01+
*       5.0610134252E+01               0
GRID*               4677               01.1642966201E+011.5000000000E+01+
*       4.8870803679E+01               0
GRID*               4678               01.0731953701E+011.5000000000E+01+
*       4.7131310823E+01               0
GRID*               4679               09.8219683141E+001.5000000000E+01+
*       4.5362369235E+01               0
GRID*               4680               08.8845610870E+001.5000000000E+01+
*       4.3588039321E+01               0
GRID*               4681               07.9327271927E+001.5000000000E+01+
*       4.1849568899E+01               0
GRID*               4682               06.9969880283E+001.5000000000E+01+
*       4.0150822966E+01               0
GRID*               4683               06.0871560799E+001.5000000000E+01+
*       3.8467247672E+01               0
GRID*               4684               05.1916446161E+001.5000000000E+01+
*       3.6772089829E+01               0
GRID*               4685               04.2943196429E+001.5000000000E+01+
*       3.5056762070E+01               0
GRID*               4686               05.3439339723E+001.5000000000E+01+
*       3.3402618172E+01               0
GRID*               4687               06.3988882844E+001.5000000000E+01+
*       3.1738000143E+01               0
GRID*               4688               07.4554156302E+001.5000000000E+01+
*       3.0053828365E+01               0
GRID*               4689               08.5077155439E+001.5000000000E+01+
*       2.8351048250E+01               0
GRID*               4690               09.5492467091E+001.5000000000E+01+
*       2.6639478407E+01               0
GRID*               4691               01.0575676740E+011.5000000000E+01+
*       2.4934008941E+01               0
GRID*               4692               01.1581241092E+011.5000000000E+01+
*       2.3253262320E+01               0
GRID*               4693               01.2568071552E+011.5000000000E+01+
*       2.1620248844E+01               0
GRID*               4694               01.3572291752E+011.5000000000E+01+
*       2.0037739316E+01               0
GRID*               4695               01.4624564379E+011.5000000000E+01+
*       1.8442204696E+01               0
GRID*               4696               01.5688134391E+011.5000000000E+01+
*       1.6772779844E+01               0
GRID*               4697               01.6717309087E+011.5000000000E+01+
*       1.5055307727E+01               0
GRID*               4698               01.7710003559E+011.5000000000E+01+
*       1.3341863603E+01               0
GRID*               4699               01.8680962141E+011.5000000000E+01+
*       1.1667965988E+01               0
GRID*               4700               01.9677847484E+011.5000000000E+01+
*       1.0042744874E+01               0
GRID*               4701               02.0743751934E+011.5000000000E+01+
*       8.4126259291E+00               0
GRID*               4702               02.1851669130E+011.5000000000E+01+
*       6.7209471129E+00               0
GRID*               4703               02.2941627750E+011.5000000000E+01+
*       4.9841055236E+00               0
GRID*               4704               02.3978612882E+011.5000000000E+01+
*       3.2664672472E+00               0
GRID*               4705               02.4985894527E+011.5000000000E+01+
*       1.6162612990E+00               0
GRID*               4706               01.7859897161E+011.5000000000E+01+
*       4.1051741296E+01               0
GRID*               4707               01.5893933226E+011.5000000000E+01+
*       4.1263852649E+01               0
GRID*               4708               01.3923414100E+011.5000000000E+01+
*       4.1476144546E+01               0
GRID*               4709               01.1902380174E+011.5000000000E+01+
*       4.1693605481E+01               0
GRID*               4710               09.8899198876E+001.5000000000E+01+
*       4.1799047573E+01               0
GRID*               4711               01.1825348479E+011.5000000000E+01+
*       4.5410364086E+01               0
GRID*               4712               01.3129897972E+011.5000000000E+01+
*       4.3598743765E+01               0
GRID*               4713               01.0901777911E+011.5000000000E+01+
*       4.3575549410E+01               0
GRID*               4714               01.2688062493E+011.5000000000E+01+
*       4.7161346301E+01               0
GRID*               4715               01.3704074780E+011.5000000000E+01+
*       4.5572082254E+01               0
GRID*               4716               01.4631222908E+011.5000000000E+01+
*       4.4439032694E+01               0
GRID*               4717               01.5069976910E+011.5000000000E+01+
*       4.3041820103E+01               0
GRID*               4718               01.7068079123E+011.5000000000E+01+
*       4.3168091843E+01               0
GRID*               4719               01.5775709834E+011.5000000000E+01+
*       4.4315039164E+01               0
GRID*               4720               01.6918366027E+011.5000000000E+01+
*       4.5219823222E+01               0
GRID*               4721               01.5335027491E+011.5000000000E+01+
*       4.5596736041E+01               0
GRID*               4722               01.6413558253E+011.5000000000E+01+
*       4.6952166044E+01               0
GRID*               4723               01.4580864779E+011.5000000000E+01+
*       4.7137649275E+01               0
GRID*               4724               01.3636444976E+011.5000000000E+01+
*       4.8845785270E+01               0
GRID*               4725               01.5707372834E+011.5000000000E+01+
*       4.8734384837E+01               0
GRID*               4726               01.5372468297E+011.5000000000E+01+
*       5.2415555401E+01               0
GRID*               4727               01.4641899980E+011.5000000000E+01+
*       5.0573762114E+01               0
GRID*               4728               01.0806260933E+011.5000000000E+01+
*       3.9990066528E+01               0
GRID*               4729               09.7819665185E+001.5000000000E+01+
*       3.8431083019E+01               0
GRID*               4730               08.9195290427E+001.5000000000E+01+
*       3.6893209311E+01               0
GRID*               4731               08.1356510246E+001.5000000000E+01+
*       3.5227627198E+01               0
GRID*               4732               07.2856829450E+001.5000000000E+01+
*       3.3488245100E+01               0
GRID*               4733               06.2260441613E+001.5000000000E+01+
*       3.5130177666E+01               0
GRID*               4734               07.0910953209E+001.5000000000E+01+
*       3.6828659769E+01               0
GRID*               4735               07.9652689330E+001.5000000000E+01+
*       3.8478616994E+01               0
GRID*               4736               08.8943248880E+001.5000000000E+01+
*       4.0113229043E+01               0
GRID*               4737               01.2752788953E+011.5000000000E+01+
*       3.9777798822E+01               0
GRID*               4738               01.1573243316E+011.5000000000E+01+
*       3.8175194117E+01               0
GRID*               4739               01.0454151235E+011.5000000000E+01+
*       3.6986511618E+01               0
GRID*               4740               09.9978340814E+001.5000000000E+01+
*       3.5405128963E+01               0
GRID*               4741               09.2245509099E+001.5000000000E+01+
*       3.3602532002E+01               0
GRID*               4742               08.3554562741E+001.5000000000E+01+
*       3.1815652939E+01               0
GRID*               4743               01.4745203077E+011.5000000000E+01+
*       3.9549641892E+01               0
GRID*               4744               01.3548634532E+011.5000000000E+01+
*       3.7817023080E+01               0
GRID*               4745               01.2093183880E+011.5000000000E+01+
*       3.5965398364E+01               0
GRID*               4746               01.1224563206E+011.5000000000E+01+
*       3.3768173449E+01               0
GRID*               4747               01.0336013491E+011.5000000000E+01+
*       3.1896515764E+01               0
GRID*               4748               09.4254204052E+001.5000000000E+01+
*       3.0105586572E+01               0
GRID*               4749               01.6713464413E+011.5000000000E+01+
*       3.9364125152E+01               0
GRID*               4750               01.5617359758E+011.5000000000E+01+
*       3.7621188586E+01               0
GRID*               4751               01.4462604573E+011.5000000000E+01+
*       3.5782791456E+01               0
GRID*               4752               01.3350470886E+011.5000000000E+01+
*       3.3851854857E+01               0
GRID*               4753               01.2363490642E+011.5000000000E+01+
*       3.1949245992E+01               0
GRID*               4754               01.1414387754E+011.5000000000E+01+
*       3.0137485199E+01               0
GRID*               4755               01.0476618089E+011.5000000000E+01+
*       2.8373868438E+01               0
GRID*               4756               02.0360584736E+011.5000000000E+01+
*       3.1418030691E+01               0
GRID*               4757               01.8466721186E+011.5000000000E+01+
*       3.1683336827E+01               0
GRID*               4758               01.6473828024E+011.5000000000E+01+
*       3.1845960419E+01               0
GRID*               4759               01.4424376138E+011.5000000000E+01+
*       3.1934976522E+01               0
GRID*               4760               01.6615797177E+011.5000000000E+01+
*       3.5673495063E+01               0
GRID*               4761               01.7613236938E+011.5000000000E+01+
*       3.3659283699E+01               0
GRID*               4762               01.5490115237E+011.5000000000E+01+
*       3.3789788155E+01               0
GRID*               4763               01.8940313286E+011.5000000000E+01+
*       3.5664390273E+01               0
GRID*               4764               01.9708726671E+011.5000000000E+01+
*       3.3374706838E+01               0
GRID*               4765               01.8548596919E+011.5000000000E+01+
*       3.9183761745E+01               0
GRID*               4766               01.7594363114E+011.5000000000E+01+
*       3.7541368932E+01               0
GRID*               4767               01.9197635444E+011.5000000000E+01+
*       3.7641123518E+01               0
GRID*               4768               01.5426997944E+011.5000000000E+01+
*       3.0080791657E+01               0
GRID*               4769               01.4429662044E+011.5000000000E+01+
*       2.8332218484E+01               0
GRID*               4770               01.3451149152E+011.5000000000E+01+
*       2.6611155515E+01               0
GRID*               4771               01.2495654529E+011.5000000000E+01+
*       2.4923344123E+01               0
GRID*               4772               01.2450110856E+011.5000000000E+01+
*       2.8370005300E+01               0
GRID*               4773               01.1499211309E+011.5000000000E+01+
*       2.6640299072E+01               0
GRID*               4774               01.3417277605E+011.5000000000E+01+
*       3.0132485927E+01               0
GRID*               4775               01.7387149864E+011.5000000000E+01+
*       3.0000897686E+01               0
GRID*               4776               01.6388670523E+011.5000000000E+01+
*       2.8278383975E+01               0
GRID*               4777               01.5387387468E+011.5000000000E+01+
*       2.6543914637E+01               0
GRID*               4778               01.4385663636E+011.5000000000E+01+
*       2.4867416512E+01               0
GRID*               4779               01.3440408736E+011.5000000000E+01+
*       2.3246899629E+01               0
GRID*               4780               01.9227856405E+011.5000000000E+01+
*       2.9893346206E+01               0
GRID*               4781               01.8301895400E+011.5000000000E+01+
*       2.8267201891E+01               0
GRID*               4782               01.7362844560E+011.5000000000E+01+
*       2.6466660671E+01               0
GRID*               4783               01.6272545149E+011.5000000000E+01+
*       2.4736903621E+01               0
GRID*               4784               01.5225214607E+011.5000000000E+01+
*       2.3180653097E+01               0
GRID*               4785               01.4349163541E+011.5000000000E+01+
*       2.1665266619E+01               0
GRID*               4786               02.2283154863E+011.5000000000E+01+
*       2.3692384311E+01               0
GRID*               4787               02.0316034079E+011.5000000000E+01+
*       2.4141940703E+01               0
GRID*               4788               01.8251613979E+011.5000000000E+01+
*       2.4515440596E+01               0
GRID*               4789               02.1724904156E+011.5000000000E+01+
*       2.5740673701E+01               0
GRID*               4790               01.9596090816E+011.5000000000E+01+
*       2.6473613276E+01               0
GRID*               4791               02.1332675663E+011.5000000000E+01+
*       2.7762839143E+01               0
GRID*               4792               01.9883896029E+011.5000000000E+01+
*       2.8431377427E+01               0
GRID*               4793               02.0931399816E+011.5000000000E+01+
*       2.9607904168E+01               0
GRID*               4794               01.7008671076E+011.5000000000E+01+
*       2.2893554205E+01               0
GRID*               4795               01.5867694891E+011.5000000000E+01+
*       2.1730541308E+01               0
GRID*               4796               01.5395041888E+011.5000000000E+01+
*       2.0182541918E+01               0
GRID*               4797               01.8976086291E+011.5000000000E+01+
*       2.2450723700E+01               0
GRID*               4798               01.7467307421E+011.5000000000E+01+
*       2.0676162162E+01               0
GRID*               4799               01.6574890326E+011.5000000000E+01+
*       1.8557766490E+01               0
GRID*               4800               02.3524171206E+011.5000000000E+01+
*       1.9854241626E+01               0
GRID*               4801               02.1754889588E+011.5000000000E+01+
*       2.0119171485E+01               0
GRID*               4802               01.9768584540E+011.5000000000E+01+
*       2.0382719498E+01               0
GRID*               4803               02.2883560143E+011.5000000000E+01+
*       2.1724913217E+01               0
GRID*               4804               02.0999977691E+011.5000000000E+01+
*       2.2084972726E+01               0
GRID*               4805               02.0693169827E+011.5000000000E+01+
*       1.8426279668E+01               0
GRID*               4806               01.9665528313E+011.5000000000E+01+
*       1.6683391845E+01               0
GRID*               4807               01.8666871515E+011.5000000000E+01+
*       1.4988478131E+01               0
GRID*               4808               01.7659107817E+011.5000000000E+01+
*       1.6767733958E+01               0
GRID*               4809               01.8642397258E+011.5000000000E+01+
*       1.8572436739E+01               0
GRID*               4810               01.9608061767E+011.5000000000E+01+
*       1.3261048397E+01               0
GRID*               4811               02.0504921438E+011.5000000000E+01+
*       1.1639464183E+01               0
GRID*               4812               02.1545766243E+011.5000000000E+01+
*       1.0128393950E+01               0
GRID*               4813               02.2747293169E+011.5000000000E+01+
*       8.5060736548E+00               0
GRID*               4814               02.3932732785E+011.5000000000E+01+
*       6.7220855905E+00               0
GRID*               4815               02.5028540545E+011.5000000000E+01+
*       4.8918851277E+00               0
GRID*               4816               02.5964947685E+011.5000000000E+01+
*       3.1689463375E+00               0
GRID*               4817               02.6982285826E+011.5000000000E+01+
*       1.6205514441E+00               0
GRID*               4818               02.2603169056E+011.5000000000E+01+
*       1.8291442307E+01               0
GRID*               4819               02.1668166036E+011.5000000000E+01+
*       1.6546821094E+01               0
GRID*               4820               02.0603534935E+011.5000000000E+01+
*       1.4862818607E+01               0
GRID*               4821               02.3890561237E+011.5000000000E+01+
*       1.6410645645E+01               0
GRID*               4822               02.4145214049E+011.5000000000E+01+
*       1.8308682553E+01               0
GRID*               4823               02.2567485061E+011.5000000000E+01+
*       1.4620900489E+01               0
GRID*               4824               02.1428396371E+011.5000000000E+01+
*       1.3114797896E+01               0
GRID*               4825               02.4587227249E+011.5000000000E+01+
*       1.4150486916E+01               0
GRID*               4826               02.5153463646E+011.5000000000E+01+
*       1.2137276871E+01               0
GRID*               4827               02.3233844295E+011.5000000000E+01+
*       1.2712837338E+01               0
GRID*               4828               02.3622810923E+011.5000000000E+01+
*       1.0547878095E+01               0
GRID*               4829               02.2043094568E+011.5000000000E+01+
*       1.1643154858E+01               0
GRID*               4830               02.5796960439E+011.5000000000E+01+
*       1.0187271327E+01               0
GRID*               4831               02.4804616557E+011.5000000000E+01+
*       8.5452521906E+00               0
GRID*               4832               02.6497330638E+011.5000000000E+01+
*       8.5952171149E+00               0
GRID*               4833               02.6273113360E+011.5000000000E+01+
*       6.6964883933E+00               0
GRID*               4834               02.7684441780E+011.5000000000E+01+
*       3.0605848115E+00               0
GRID*               4835               02.7087275058E+011.5000000000E+01+
*       4.5737997245E+00               0
GRID*               4836               08.6047759305E+001.5000000000E+01+
*       5.0554806149E+01               0
GRID*               4837               07.5402226583E+001.5000000000E+01+
*       5.2237425466E+01               0
GRID*               4838               06.4722274172E+001.5000000000E+01+
*       5.3898043206E+01               0
GRID*               4839               05.4023733131E+001.5000000000E+01+
*       5.5537019737E+01               0
GRID*               4840               04.3381297724E+001.5000000000E+01+
*       5.7156015927E+01               0
GRID*               4841               03.2858879897E+001.5000000000E+01+
*       5.8757630885E+01               0
GRID*               4842               02.2364059949E+001.5000000000E+01+
*       6.0351562341E+01               0
GRID*               4843               01.1731035390E+001.5000000000E+01+
*       6.1961249907E+01               0
GRID*               4844               09.3991555795E-021.5000000000E+01+
*       6.3630697103E+01               0
GRID*               4845               07.3544811423E+001.5000000000E+01+
*       5.5633567786E+01               0
GRID*               4846               09.3157852675E+001.5000000000E+01+
*       5.5727974278E+01               0
GRID*               4847               01.1302179988E+011.5000000000E+01+
*       5.5826302240E+01               0
GRID*               4848               09.5077475283E+001.5000000000E+01+
*       5.2299674231E+01               0
GRID*               4849               08.4317956486E+001.5000000000E+01+
*       5.3976149518E+01               0
GRID*               4850               01.0403752192E+011.5000000000E+01+
*       5.4052951366E+01               0
GRID*               4851               06.2762322877E+001.5000000000E+01+
*       5.7258852408E+01               0
GRID*               4852               08.2132259495E+001.5000000000E+01+
*       5.7363311978E+01               0
GRID*               4853               01.0178518314E+011.5000000000E+01+
*       5.7469869801E+01               0
GRID*               4854               01.2210316542E+011.5000000000E+01+
*       5.7605931173E+01               0
GRID*               4855               02.0878209272E+001.5000000000E+01+
*       6.3626350913E+01               0
GRID*               4856               03.1668257538E+001.5000000000E+01+
*       6.2013064674E+01               0
GRID*               4857               04.1995701311E+001.5000000000E+01+
*       6.0439965950E+01               0
GRID*               4858               05.2194729468E+001.5000000000E+01+
*       5.8858522570E+01               0
GRID*               4859               01.1006393508E+011.5000000000E+01+
*       5.9193622635E+01               0
GRID*               4860               07.1213571284E+001.5000000000E+01+
*       5.8979530290E+01               0
GRID*               4861               09.0297266902E+001.5000000000E+01+
*       5.9089846201E+01               0
GRID*               4862               04.1155598183E+001.5000000000E+01+
*       6.3585561815E+01               0
GRID*               4863               05.1828185434E+001.5000000000E+01+
*       6.2098832944E+01               0
GRID*               4864               06.0885574319E+001.5000000000E+01+
*       6.0543003248E+01               0
GRID*               4865               09.7580853274E+001.5000000000E+01+
*       6.0782628307E+01               0
GRID*               4866               07.9011971771E+001.5000000000E+01+
*       6.0743702012E+01               0
GRID*               4867               06.8929241391E+001.5000000000E+01+
*       6.2109124663E+01               0
GRID*               4868               0-1.707899096E+011.5000000000E+01+
*       1.7019855805E+00               0
GRID*               4869               0-1.615937511E+011.5000000000E+01+
*       3.4078634165E+00               0
GRID*               4870               0-1.524463596E+011.5000000000E+01+
*       5.1211878418E+00               0
GRID*               4871               0-1.433373875E+011.5000000000E+01+
*       6.8479842111E+00               0
GRID*               4872               0-1.342283051E+011.5000000000E+01+
*       8.5898662867E+00               0
GRID*               4873               0-1.250919184E+011.5000000000E+01+
*       1.0343553991E+01               0
GRID*               4874               0-1.159242768E+011.5000000000E+01+
*       1.2103525213E+01               0
GRID*               4875               0-1.067340029E+011.5000000000E+01+
*       1.3865071122E+01               0
GRID*               4876               0-9.752856956E+001.5000000000E+01+
*       1.5625709637E+01               0
GRID*               4877               0-8.831616489E+001.5000000000E+01+
*       1.7384103997E+01               0
GRID*               4878               0-7.910990850E+001.5000000000E+01+
*       1.9139878665E+01               0
GRID*               4879               0-6.992480057E+001.5000000000E+01+
*       2.0894168845E+01               0
GRID*               4880               0-6.077458987E+001.5000000000E+01+
*       2.2649130962E+01               0
GRID*               4881               0-5.165831071E+001.5000000000E+01+
*       2.4406865964E+01               0
GRID*               4882               0-4.254475099E+001.5000000000E+01+
*       2.6168567591E+01               0
GRID*               4883               0-3.337962696E+001.5000000000E+01+
*       2.7933265564E+01               0
GRID*               4884               0-2.412051727E+001.5000000000E+01+
*       2.9696045778E+01               0
GRID*               4885               0-1.478609187E+001.5000000000E+01+
*       3.1448821200E+01               0
GRID*               4886               0-5.458747948E-011.5000000000E+01+
*       3.3186733525E+01               0
GRID*               4887               03.7847336088E-011.5000000000E+01+
*       3.4914048075E+01               0
GRID*               4888               01.2941911421E+001.5000000000E+01+
*       3.6639211532E+01               0
GRID*               4889               02.2058039609E+001.5000000000E+01+
*       3.8364848186E+01               0
GRID*               4890               03.1172830308E+001.5000000000E+01+
*       4.0091872956E+01               0
GRID*               4891               04.0305109197E+001.5000000000E+01+
*       4.1821252032E+01               0
GRID*               4892               04.9466113047E+001.5000000000E+01+
*       4.3555106316E+01               0
GRID*               4893               05.8649103442E+001.5000000000E+01+
*       4.5299363497E+01               0
GRID*               4894               06.7815994721E+001.5000000000E+01+
*       4.7049979948E+01               0
GRID*               4895               07.6948158691E+001.5000000000E+01+
*       4.8799316212E+01               0
GRID*               4896               02.3830469061E+001.5000000000E+01+
*       5.7048868985E+01               0
GRID*               4897               04.1792020347E-011.5000000000E+01+
*       5.6941823915E+01               0
GRID*               4898               0-1.550647788E+001.5000000000E+01+
*       5.6829645715E+01               0
GRID*               4899               0-3.513614502E+001.5000000000E+01+
*       5.6711548180E+01               0
GRID*               4900               0-5.462581326E+001.5000000000E+01+
*       5.6592128066E+01               0
GRID*               4901               0-7.392769964E+001.5000000000E+01+
*       5.6478171930E+01               0
GRID*               4902               0-9.315724951E+001.5000000000E+01+
*       5.6367069116E+01               0
GRID*               4903               0-1.125841472E+011.5000000000E+01+
*       5.6256024993E+01               0
GRID*               4904               0-1.325843266E+011.5000000000E+01+
*       5.6160797324E+01               0
GRID*               4905               0-2.616395728E+001.5000000000E+01+
*       5.8427350252E+01               0
GRID*               4906               0-1.717320462E+001.5000000000E+01+
*       6.0143521738E+01               0
GRID*               4907               0-8.131394114E-011.5000000000E+01+
*       6.1872940513E+01               0
GRID*               4908               0-6.470678504E-011.5000000000E+01+
*       5.8543067486E+01               0
GRID*               4909               02.5966608308E-011.5000000000E+01+
*       6.0254137769E+01               0
GRID*               4910               01.3227079655E+001.5000000000E+01+
*       5.8648838726E+01               0
GRID*               4911               0-4.573261962E+001.5000000000E+01+
*       5.8301394243E+01               0
GRID*               4912               0-3.688837998E+001.5000000000E+01+
*       6.0005285701E+01               0
GRID*               4913               0-2.794830836E+001.5000000000E+01+
*       6.1727622918E+01               0
GRID*               4914               0-1.893137940E+001.5000000000E+01+
*       6.3513614657E+01               0
GRID*               4915               0-3.871614244E+001.5000000000E+01+
*       6.3279933472E+01               0
GRID*               4916               0-6.500904611E+001.5000000000E+01+
*       5.8184898166E+01               0
GRID*               4917               0-5.644171618E+001.5000000000E+01+
*       5.9869664775E+01               0
GRID*               4918               0-4.777316288E+001.5000000000E+01+
*       6.1550271199E+01               0
GRID*               4919               0-1.223662760E+011.5000000000E+01+
*       5.7863056061E+01               0
GRID*               4920               0-1.028646870E+011.5000000000E+01+
*       5.7986854336E+01               0
GRID*               4921               0-8.393115933E+001.5000000000E+01+
*       5.8090935608E+01               0
GRID*               4922               0-1.116903403E+011.5000000000E+01+
*       5.9579641457E+01               0
GRID*               4923               0-9.336722948E+001.5000000000E+01+
*       5.9755612049E+01               0
GRID*               4924               0-7.525389303E+001.5000000000E+01+
*       5.9759543104E+01               0
GRID*               4925               0-5.877505909E+001.5000000000E+01+
*       6.3007563541E+01               0
GRID*               4926               0-6.783462043E+001.5000000000E+01+
*       6.1407376443E+01               0
GRID*               4927               0-8.477222329E+001.5000000000E+01+
*       6.1223712687E+01               0
GRID*               4928               02.0688406747E+001.5000000000E+01+
*       4.1753882943E+01               0
GRID*               4929               01.0159901344E+001.5000000000E+01+
*       4.3414146636E+01               0
GRID*               4930               0-4.062741705E-021.5000000000E+01+
*       4.5069185334E+01               0
GRID*               4931               0-1.098435295E+001.5000000000E+01+
*       4.6718496972E+01               0
GRID*               4932               0-2.155337067E+001.5000000000E+01+
*       4.8360902526E+01               0
GRID*               4933               0-3.210439665E+001.5000000000E+01+
*       4.9996365365E+01               0
GRID*               4934               0-4.263940766E+001.5000000000E+01+
*       5.1624327035E+01               0
GRID*               4935               0-5.314661134E+001.5000000000E+01+
*       5.3246614136E+01               0
GRID*               4936               0-6.358784539E+001.5000000000E+01+
*       5.4863067760E+01               0
GRID*               4937               01.4802646408E+001.5000000000E+01+
*       5.5324826035E+01               0
GRID*               4938               05.7524564774E-011.5000000000E+01+
*       5.3591845617E+01               0
GRID*               4939               0-3.321654956E-011.5000000000E+01+
*       5.1852888384E+01               0
GRID*               4940               0-1.242153865E+001.5000000000E+01+
*       5.0108017755E+01               0
GRID*               4941               0-2.452815668E+001.5000000000E+01+
*       5.5100185175E+01               0
GRID*               4942               0-3.356352061E+001.5000000000E+01+
*       5.3363945950E+01               0
GRID*               4943               0-4.409706804E+001.5000000000E+01+
*       5.4979181876E+01               0
GRID*               4944               0-2.299661236E+001.5000000000E+01+
*       5.1737793355E+01               0
GRID*               4945               0-4.872784138E-011.5000000000E+01+
*       5.5211377079E+01               0
GRID*               4946               0-1.392211215E+001.5000000000E+01+
*       5.3475831792E+01               0
GRID*               4947               08.7413093218E-011.5000000000E+01+
*       4.6821475857E+01               0
GRID*               4948               02.8447212488E+001.5000000000E+01+
*       4.6913691532E+01               0
GRID*               4949               04.8126778992E+001.5000000000E+01+
*       4.6986414202E+01               0
GRID*               4950               02.9819361834E+001.5000000000E+01+
*       4.3492130363E+01               0
GRID*               4951               01.9289423578E+001.5000000000E+01+
*       4.5158494313E+01               0
GRID*               4952               03.8962901168E+001.5000000000E+01+
*       4.5232882360E+01               0
GRID*               4953               03.7570754914E+001.5000000000E+01+
*       4.8659874426E+01               0
GRID*               4954               04.6674602083E+001.5000000000E+01+
*       5.0408121504E+01               0
GRID*               4955               05.5725848932E+001.5000000000E+01+
*       5.2151685716E+01               0
GRID*               4956               06.6338374584E+001.5000000000E+01+
*       5.0481428602E+01               0
GRID*               4957               05.7242703138E+001.5000000000E+01+
*       4.8729669181E+01               0
GRID*               4958               04.5072273076E+001.5000000000E+01+
*       5.3798140969E+01               0
GRID*               4959               03.4421181636E+001.5000000000E+01+
*       5.5427326077E+01               0
GRID*               4960               07.2806970587E-011.5000000000E+01+
*       5.0215183216E+01               0
GRID*               4961               01.7864693335E+001.5000000000E+01+
*       4.8566663883E+01               0
GRID*               4962               0-1.847113873E-011.5000000000E+01+
*       4.8464499840E+01               0
GRID*               4963               02.6971967274E+001.5000000000E+01+
*       5.0312128762E+01               0
GRID*               4964               03.6041354674E+001.5000000000E+01+
*       5.2055071898E+01               0
GRID*               4965               02.5407349282E+001.5000000000E+01+
*       5.3692575077E+01               0
GRID*               4966               01.6352268244E+001.5000000000E+01+
*       5.1952627674E+01               0
GRID*               4967               02.4812453138E-011.5000000000E+01+
*       3.8280751190E+01               0
GRID*               4968               0-8.014730471E-011.5000000000E+01+
*       3.9914691704E+01               0
GRID*               4969               0-1.861202961E+001.5000000000E+01+
*       4.1547885746E+01               0
GRID*               4970               0-2.929245821E+001.5000000000E+01+
*       4.3192843255E+01               0
GRID*               4971               0-3.992450015E+001.5000000000E+01+
*       4.4851516255E+01               0
GRID*               4972               0-5.038280812E+001.5000000000E+01+
*       4.6506320156E+01               0
GRID*               4973               0-6.073321896E+001.5000000000E+01+
*       4.8139566851E+01               0
GRID*               4974               0-7.113807575E+001.5000000000E+01+
*       4.9757362866E+01               0
GRID*               4975               0-8.162690477E+001.5000000000E+01+
*       5.1376973315E+01               0
GRID*               4976               0-9.208882444E+001.5000000000E+01+
*       5.3003521184E+01               0
GRID*               4977               0-1.024133486E+011.5000000000E+01+
*       5.4631216872E+01               0
GRID*               4978               0-5.167307985E+001.5000000000E+01+
*       4.9878244013E+01               0
GRID*               4979               0-8.296718655E+001.5000000000E+01+
*       5.4744979819E+01               0
GRID*               4980               0-7.259590868E+001.5000000000E+01+
*       5.3123033401E+01               0
GRID*               4981               0-6.213192926E+001.5000000000E+01+
*       5.1500944951E+01               0
GRID*               4982               0-4.119452142E+001.5000000000E+01+
*       4.8248752187E+01               0
GRID*               4983               0-3.069714832E+001.5000000000E+01+
*       4.6608455881E+01               0
GRID*               4984               0-2.013863444E+001.5000000000E+01+
*       4.4959082463E+01               0
GRID*               4985               0-9.538626778E-011.5000000000E+01+
*       4.3307709591E+01               0
GRID*               4986               01.0440827917E-011.5000000000E+01+
*       4.1658426705E+01               0
GRID*               4987               01.1569222834E+001.5000000000E+01+
*       4.0009618496E+01               0
GRID*               4988               0-6.586007696E-011.5000000000E+01+
*       3.6556850110E+01               0
GRID*               4989               0-1.694551047E+001.5000000000E+01+
*       3.8178964739E+01               0
GRID*               4990               0-2.747151002E+001.5000000000E+01+
*       3.9787556478E+01               0
GRID*               4991               0-3.826858907E+001.5000000000E+01+
*       4.1410630092E+01               0
GRID*               4992               0-4.917921017E+001.5000000000E+01+
*       4.3075259050E+01               0
GRID*               4993               0-5.972886359E+001.5000000000E+01+
*       4.4769674439E+01               0
GRID*               4994               0-6.977714548E+001.5000000000E+01+
*       4.6429181395E+01               0
GRID*               4995               0-7.989827239E+001.5000000000E+01+
*       4.8032267659E+01               0
GRID*               4996               0-9.041297689E+001.5000000000E+01+
*       4.9630108093E+01               0
GRID*               4997               0-1.010507828E+011.5000000000E+01+
*       5.1254043510E+01               0
GRID*               4998               0-1.115603827E+011.5000000000E+01+
*       5.2890673106E+01               0
GRID*               4999               0-1.219930552E+011.5000000000E+01+
*       5.4524316364E+01               0
GRID*               5000               0-1.906951854E+011.5000000000E+01+
*       1.6969237950E+00               0
GRID*               5001               0-1.813692671E+011.5000000000E+01+
*       3.3813099191E+00               0
GRID*               5002               0-1.721914420E+011.5000000000E+01+
*       5.0604179405E+00               0
GRID*               5003               0-1.631889131E+011.5000000000E+01+
*       6.7563358005E+00               0
GRID*               5004               0-1.542398656E+011.5000000000E+01+
*       8.4820574275E+00               0
GRID*               5005               0-1.452343152E+011.5000000000E+01+
*       1.0233237411E+01               0
GRID*               5006               0-1.361431205E+011.5000000000E+01+
*       1.1999060102E+01               0
GRID*               5007               0-1.269862390E+011.5000000000E+01+
*       1.3770011166E+01               0
GRID*               5008               0-1.177885848E+011.5000000000E+01+
*       1.5540602065E+01               0
GRID*               5009               0-1.085631342E+011.5000000000E+01+
*       1.7308330458E+01               0
GRID*               5010               0-9.932069889E+001.5000000000E+01+
*       1.9071233960E+01               0
GRID*               5011               0-9.008105909E+001.5000000000E+01+
*       2.0828146009E+01               0
GRID*               5012               0-8.087264499E+001.5000000000E+01+
*       2.2580426154E+01               0
GRID*               5013               0-7.171903968E+001.5000000000E+01+
*       2.4332222792E+01               0
GRID*               5014               0-6.260654643E+001.5000000000E+01+
*       2.6088827948E+01               0
GRID*               5015               0-5.345850668E+001.5000000000E+01+
*       2.7854208195E+01               0
GRID*               5016               0-4.416419951E+001.5000000000E+01+
*       2.9626851615E+01               0
GRID*               5017               0-3.467733035E+001.5000000000E+01+
*       3.1393177426E+01               0
GRID*               5018               0-2.512942857E+001.5000000000E+01+
*       3.3133458651E+01               0
GRID*               5019               0-1.573803520E+001.5000000000E+01+
*       3.4846936018E+01               0
GRID*               5020               0-2.106901347E+011.5000000000E+01+
*       1.7123361148E+00               0
GRID*               5021               0-2.010195184E+011.5000000000E+01+
*       3.3911652636E+00               0
GRID*               5022               0-1.915261571E+011.5000000000E+01+
*       5.0217170915E+00               0
GRID*               5023               0-1.826095043E+011.5000000000E+01+
*       6.6549458787E+00               0
GRID*               5024               0-1.739954072E+011.5000000000E+01+
*       8.3444394378E+00               0
GRID*               5025               0-1.652940550E+011.5000000000E+01+
*       1.0087181805E+01               0
GRID*               5026               0-1.563855488E+011.5000000000E+01+
*       1.1860624926E+01               0
GRID*               5027               0-1.473095476E+011.5000000000E+01+
*       1.3645323838E+01               0
GRID*               5028               0-1.381412370E+011.5000000000E+01+
*       1.5429973210E+01               0
GRID*               5029               0-1.289179622E+011.5000000000E+01+
*       1.7212186979E+01               0
GRID*               5030               0-1.196408075E+011.5000000000E+01+
*       1.8990199534E+01               0
GRID*               5031               0-1.103226904E+011.5000000000E+01+
*       2.0759338220E+01               0
GRID*               5032               0-1.010091787E+011.5000000000E+01+
*       2.2515768648E+01               0
GRID*               5033               0-9.176766353E+001.5000000000E+01+
*       2.4262851936E+01               0
GRID*               5034               0-8.264327460E+001.5000000000E+01+
*       2.6011053415E+01               0
GRID*               5035               0-7.358164774E+001.5000000000E+01+
*       2.7771469286E+01               0
GRID*               5036               0-6.439394749E+001.5000000000E+01+
*       2.9552745841E+01               0
GRID*               5037               0-5.484236146E+001.5000000000E+01+
*       3.1349437676E+01               0
GRID*               5038               0-4.488040496E+001.5000000000E+01+
*       3.3115633213E+01               0
GRID*               5039               0-3.504226941E+001.5000000000E+01+
*       3.4810422188E+01               0
GRID*               5040               0-2.581049182E+001.5000000000E+01+
*       3.6478392684E+01               0
GRID*               5041               0-3.599454006E+001.5000000000E+01+
*       3.8060759748E+01               0
GRID*               5042               0-4.676698934E+001.5000000000E+01+
*       3.9628137593E+01               0
GRID*               5043               0-5.817503798E+001.5000000000E+01+
*       4.1253809574E+01               0
GRID*               5044               0-6.965366845E+001.5000000000E+01+
*       4.2991523372E+01               0
GRID*               5045               0-7.930179092E+001.5000000000E+01+
*       4.4774485782E+01               0
GRID*               5046               0-8.831083286E+001.5000000000E+01+
*       4.6378097383E+01               0
GRID*               5047               0-9.879055312E+001.5000000000E+01+
*       4.7896365286E+01               0
GRID*               5048               0-1.098498134E+011.5000000000E+01+
*       4.9492258738E+01               0
GRID*               5049               0-1.206650387E+011.5000000000E+01+
*       5.1146481687E+01               0
GRID*               5050               0-1.310469927E+011.5000000000E+01+
*       5.2792960007E+01               0
GRID*               5051               0-1.417627924E+011.5000000000E+01+
*       5.4420810360E+01               0
GRID*               5052               0-7.901932670E+001.5000000000E+01+
*       4.1057623144E+01               0
GRID*               5053               0-1.007325645E+011.5000000000E+01+
*       4.0717717815E+01               0
GRID*               5054               0-1.219959043E+011.5000000000E+01+
*       4.0275072543E+01               0
GRID*               5055               0-1.426122347E+011.5000000000E+01+
*       3.9864784493E+01               0
GRID*               5056               0-1.627847756E+011.5000000000E+01+
*       3.9489789424E+01               0
GRID*               5057               0-1.825572668E+011.5000000000E+01+
*       3.9138369678E+01               0
GRID*               5058               0-1.665955649E+011.5000000000E+01+
*       4.5020361467E+01               0
GRID*               5059               0-1.515325769E+011.5000000000E+01+
*       4.3450368608E+01               0
GRID*               5060               0-1.367321993E+011.5000000000E+01+
*       4.1880398478E+01               0
GRID*               5061               0-1.772771387E+011.5000000000E+01+
*       4.1094684885E+01               0
GRID*               5062               0-1.719931181E+011.5000000000E+01+
*       4.3055856849E+01               0
GRID*               5063               0-1.571677024E+011.5000000000E+01+
*       4.1472992349E+01               0
GRID*               5064               0-1.301423389E+011.5000000000E+01+
*       4.9355219695E+01               0
GRID*               5065               0-1.538170067E+011.5000000000E+01+
*       4.9289362442E+01               0
GRID*               5066               0-1.498729285E+011.5000000000E+01+
*       5.2690056737E+01               0
GRID*               5067               0-1.402928505E+011.5000000000E+01+
*       5.1095498099E+01               0
GRID*               5068               0-1.568227348E+011.5000000000E+01+
*       5.1205706813E+01               0
GRID*               5069               0-1.388694379E+011.5000000000E+01+
*       4.7426888788E+01               0
GRID*               5070               0-1.456603618E+011.5000000000E+01+
*       4.5435354671E+01               0
GRID*               5071               0-1.608169512E+011.5000000000E+01+
*       4.7032671671E+01               0
GRID*               5072               0-1.310576477E+011.5000000000E+01+
*       4.3887578164E+01               0
GRID*               5073               0-1.159227940E+011.5000000000E+01+
*       4.2360706912E+01               0
GRID*               5074               0-1.181119220E+011.5000000000E+01+
*       4.7695473370E+01               0
GRID*               5075               0-1.251547491E+011.5000000000E+01+
*       4.5834355029E+01               0
GRID*               5076               0-1.113095803E+011.5000000000E+01+
*       4.4389272195E+01               0
GRID*               5077               0-9.307631567E+001.5000000000E+01+
*       4.3035278680E+01               0
GRID*               5078               0-9.566478411E+001.5000000000E+01+
*       4.4981835257E+01               0
GRID*               5079               0-1.061640543E+011.5000000000E+01+
*       4.6196328402E+01               0
GRID*               5080               0-7.545361411E+001.5000000000E+01+
*       3.1284311769E+01               0
GRID*               5081               0-8.704253978E+001.5000000000E+01+
*       3.3085335651E+01               0
GRID*               5082               0-1.001590254E+011.5000000000E+01+
*       3.4886134657E+01               0
GRID*               5083               0-1.142243707E+011.5000000000E+01+
*       3.6587264845E+01               0
GRID*               5084               0-1.283095345E+011.5000000000E+01+
*       3.8242030101E+01               0
GRID*               5085               0-8.653434278E+001.5000000000E+01+
*       3.9045864759E+01               0
GRID*               5086               0-9.296390077E+001.5000000000E+01+
*       3.6993440497E+01               0
GRID*               5087               0-1.074612878E+011.5000000000E+01+
*       3.8644327768E+01               0
GRID*               5088               0-7.614610500E+001.5000000000E+01+
*       3.5264586314E+01               0
GRID*               5089               0-6.534580947E+001.5000000000E+01+
*       3.3150682963E+01               0
GRID*               5090               0-7.270207548E+001.5000000000E+01+
*       3.7513126964E+01               0
GRID*               5091               0-6.012677261E+001.5000000000E+01+
*       3.6404446975E+01               0
GRID*               5092               0-5.412700437E+001.5000000000E+01+
*       3.4860806571E+01               0
GRID*               5093               0-4.427093431E+001.5000000000E+01+
*       3.6420022041E+01               0
GRID*               5094               0-5.432579089E+001.5000000000E+01+
*       3.7898473851E+01               0
GRID*               5095               0-6.619796836E+001.5000000000E+01+
*       3.9396426433E+01               0
GRID*               5096               0-8.466327041E+001.5000000000E+01+
*       2.9460009758E+01               0
GRID*               5097               0-9.610994722E+001.5000000000E+01+
*       3.1163064287E+01               0
GRID*               5098               0-1.082813312E+011.5000000000E+01+
*       3.2877168304E+01               0
GRID*               5099               0-1.212652877E+011.5000000000E+01+
*       3.4573214457E+01               0
GRID*               5100               0-1.347740162E+011.5000000000E+01+
*       3.6236014653E+01               0
GRID*               5101               0-1.486219605E+011.5000000000E+01+
*       3.7874054276E+01               0
GRID*               5102               0-1.285059215E+011.5000000000E+01+
*       3.2624155400E+01               0
GRID*               5103               0-1.479777032E+011.5000000000E+01+
*       3.2342901346E+01               0
GRID*               5104               0-1.670138106E+011.5000000000E+01+
*       3.2040346137E+01               0
GRID*               5105               0-1.857983358E+011.5000000000E+01+
*       3.1728660575E+01               0
GRID*               5106               0-2.041050983E+011.5000000000E+01+
*       3.1409272159E+01               0
GRID*               5107               0-1.413684186E+011.5000000000E+01+
*       3.4268739184E+01               0
GRID*               5108               0-1.547249273E+011.5000000000E+01+
*       3.5901539807E+01               0
GRID*               5109               0-1.684622505E+011.5000000000E+01+
*       3.7525812530E+01               0
GRID*               5110               0-1.741861197E+011.5000000000E+01+
*       3.5573120144E+01               0
GRID*               5111               0-1.931885113E+011.5000000000E+01+
*       3.5248999476E+01               0
GRID*               5112               0-1.878610232E+011.5000000000E+01+
*       3.7191471931E+01               0
GRID*               5113               0-1.608739279E+011.5000000000E+01+
*       3.3960022116E+01               0
GRID*               5114               0-1.799408364E+011.5000000000E+01+
*       3.3644804122E+01               0
GRID*               5115               0-1.985661564E+011.5000000000E+01+
*       3.3322571338E+01               0
GRID*               5116               0-1.117578491E+011.5000000000E+01+
*       2.4208560254E+01               0
GRID*               5117               0-1.221184395E+011.5000000000E+01+
*       2.5894872395E+01               0
GRID*               5118               0-1.318093588E+011.5000000000E+01+
*       2.7515113169E+01               0
GRID*               5119               0-1.422328078E+011.5000000000E+01+
*       2.9000981869E+01               0
GRID*               5120               0-1.543036110E+011.5000000000E+01+
*       3.0481199881E+01               0
GRID*               5121               0-1.162345022E+011.5000000000E+01+
*       3.0985708287E+01               0
GRID*               5122               0-1.355583067E+011.5000000000E+01+
*       3.0767476118E+01               0
GRID*               5123               0-1.046538030E+011.5000000000E+01+
*       2.9340965599E+01               0
GRID*               5124               0-1.239705217E+011.5000000000E+01+
*       2.9197668225E+01               0
GRID*               5125               0-1.131343578E+011.5000000000E+01+
*       2.7594923668E+01               0
GRID*               5126               0-1.025077752E+011.5000000000E+01+
*       2.5943229738E+01               0
GRID*               5127               0-9.353872377E+001.5000000000E+01+
*       2.7687186329E+01               0
GRID*               5128               0-1.212063558E+011.5000000000E+01+
*       2.2463011785E+01               0
GRID*               5129               0-1.317679183E+011.5000000000E+01+
*       2.4195804018E+01               0
GRID*               5130               0-1.413589329E+011.5000000000E+01+
*       2.5956962114E+01               0
GRID*               5131               0-1.475239210E+011.5000000000E+01+
*       2.7515286251E+01               0
GRID*               5132               0-1.599351658E+011.5000000000E+01+
*       2.8641114908E+01               0
GRID*               5133               0-1.730631539E+011.5000000000E+01+
*       3.0156204826E+01               0
GRID*               5134               0-1.307025272E+011.5000000000E+01+
*       2.0687633352E+01               0
GRID*               5135               0-1.416981470E+011.5000000000E+01+
*       2.2421955357E+01               0
GRID*               5136               0-1.525395174E+011.5000000000E+01+
*       2.4249957845E+01               0
GRID*               5137               0-1.633711500E+011.5000000000E+01+
*       2.6416865942E+01               0
GRID*               5138               0-1.793778447E+011.5000000000E+01+
*       2.8209052286E+01               0
GRID*               5139               0-1.920143126E+011.5000000000E+01+
*       2.9843583930E+01               0
GRID*               5140               0-1.627888341E+011.5000000000E+01+
*       2.2361773354E+01               0
GRID*               5141               0-1.843521393E+011.5000000000E+01+
*       2.2227980355E+01               0
GRID*               5142               0-2.058126889E+011.5000000000E+01+
*       2.2003826351E+01               0
GRID*               5143               0-2.265107633E+011.5000000000E+01+
*       2.1699907992E+01               0
GRID*               5144               0-1.975461011E+011.5000000000E+01+
*       2.4045011961E+01               0
GRID*               5145               0-1.878754602E+011.5000000000E+01+
*       2.6153262491E+01               0
GRID*               5146               0-1.747562973E+011.5000000000E+01+
*       2.4234962762E+01               0
GRID*               5147               0-2.200576307E+011.5000000000E+01+
*       2.3703312401E+01               0
GRID*               5148               0-2.126631954E+011.5000000000E+01+
*       2.6034653574E+01               0
GRID*               5149               0-1.995731588E+011.5000000000E+01+
*       2.7986254585E+01               0
GRID*               5150               0-2.160534023E+011.5000000000E+01+
*       2.7998458375E+01               0
GRID*               5151               0-2.100105714E+011.5000000000E+01+
*       2.9561736669E+01               0
GRID*               5152               0-1.585791792E+011.5000000000E+01+
*       1.5298764086E+01               0
GRID*               5153               0-1.698937909E+011.5000000000E+01+
*       1.6966291106E+01               0
GRID*               5154               0-1.812985615E+011.5000000000E+01+
*       1.8640798878E+01               0
GRID*               5155               0-1.930999278E+011.5000000000E+01+
*       2.0319363421E+01               0
GRID*               5156               0-1.513459442E+011.5000000000E+01+
*       2.0603878528E+01               0
GRID*               5157               0-1.722586441E+011.5000000000E+01+
*       2.0487505672E+01               0
GRID*               5158               0-1.400999905E+011.5000000000E+01+
*       1.8895034713E+01               0
GRID*               5159               0-1.607074840E+011.5000000000E+01+
*       1.8781792471E+01               0
GRID*               5160               0-1.493906166E+011.5000000000E+01+
*       1.7096479264E+01               0
GRID*               5161               0-1.677265517E+011.5000000000E+01+
*       1.3494534781E+01               0
GRID*               5162               0-1.791619995E+011.5000000000E+01+
*       1.5155742820E+01               0
GRID*               5163               0-1.904181421E+011.5000000000E+01+
*       1.6840596347E+01               0
GRID*               5164               0-2.015505736E+011.5000000000E+01+
*       1.8497074892E+01               0
GRID*               5165               0-2.133615135E+011.5000000000E+01+
*       2.0105483942E+01               0
GRID*               5166               0-2.001413849E+011.5000000000E+01+
*       1.5025752024E+01               0
GRID*               5167               0-2.236433378E+011.5000000000E+01+
*       1.4971499705E+01               0
GRID*               5168               0-2.457638118E+011.5000000000E+01+
*       1.4186282066E+01               0
GRID*               5169               0-2.205374172E+011.5000000000E+01+
*       1.8339172631E+01               0
GRID*               5170               0-2.381175346E+011.5000000000E+01+
*       1.8009231140E+01               0
GRID*               5171               0-2.325884776E+011.5000000000E+01+
*       1.9811628052E+01               0
GRID*               5172               0-2.104702198E+011.5000000000E+01+
*       1.6773135288E+01               0
GRID*               5173               0-2.419741842E+011.5000000000E+01+
*       1.6181954596E+01               0
GRID*               5174               0-2.270007332E+011.5000000000E+01+
*       1.6882120358E+01               0
GRID*               5175               0-1.883246960E+011.5000000000E+01+
*       1.3320613677E+01               0
GRID*               5176               0-2.094206711E+011.5000000000E+01+
*       1.3098291104E+01               0
GRID*               5177               0-2.307091487E+011.5000000000E+01+
*       1.2707278732E+01               0
GRID*               5178               0-2.510523004E+011.5000000000E+01+
*       1.2176935727E+01               0
GRID*               5179               0-2.010638160E+011.5000000000E+01+
*       6.5644797613E+00               0
GRID*               5180               0-2.114169136E+011.5000000000E+01+
*       7.9491847941E+00               0
GRID*               5181               0-2.236403445E+011.5000000000E+01+
*       9.3009453931E+00               0
GRID*               5182               0-2.369243889E+011.5000000000E+01+
*       1.0731653086E+01               0
GRID*               5183               0-1.851499561E+011.5000000000E+01+
*       9.9009375487E+00               0
GRID*               5184               0-1.968764416E+011.5000000000E+01+
*       1.1466385523E+01               0
GRID*               5185               0-1.766194651E+011.5000000000E+01+
*       1.1686260715E+01               0
GRID*               5186               0-2.045722923E+011.5000000000E+01+
*       9.6536008047E+00               0
GRID*               5187               0-2.170093700E+011.5000000000E+01+
*       1.1155331103E+01               0
GRID*               5188               0-1.931524256E+011.5000000000E+01+
*       8.1751877305E+00               0
GRID*               5189               0-2.289498324E+011.5000000000E+01+
*       7.5159551750E+00               0
GRID*               5190               0-2.477670305E+011.5000000000E+01+
*       6.9711624098E+00               0
GRID*               5191               0-2.668538742E+011.5000000000E+01+
*       6.5054865793E+00               0
GRID*               5192               0-2.563847989E+011.5000000000E+01+
*       1.0235388952E+01               0
GRID*               5193               0-2.615817895E+011.5000000000E+01+
*       8.3343623062E+00               0
GRID*               5194               0-2.425154736E+011.5000000000E+01+
*       8.8475059404E+00               0
GRID*               5195               0-2.310078251E+011.5000000000E+01+
*       1.7379629537E+00               0
GRID*               5196               0-2.211646323E+011.5000000000E+01+
*       3.4691419554E+00               0
GRID*               5197               0-2.103518835E+011.5000000000E+01+
*       5.0681113825E+00               0
GRID*               5198               0-2.422821773E+011.5000000000E+01+
*       3.5080904005E+00               0
GRID*               5199               0-2.541638291E+011.5000000000E+01+
*       5.1575306145E+00               0
GRID*               5200               0-2.316379569E+011.5000000000E+01+
*       5.4577049316E+00               0
GRID*               5201               0-2.164759697E+011.5000000000E+01+
*       6.5258202595E+00               0
GRID*               5202               0-2.734022427E+011.5000000000E+01+
*       1.8340480090E+00               0
GRID*               5203               0-2.634757992E+011.5000000000E+01+
*       3.5130689581E+00               0
GRID*               5204               0-2.516785770E+011.5000000000E+01+
*       1.7657501826E+00               0
GRID*               5205               0-2.717344449E+011.5000000000E+01+
*       5.0013626121E+00               0
GRID*               3351               0-8.621830713E+000.0000000000E+00+
*       6.1088673454E+01               0
GRID*               3352               0-6.939840081E+000.0000000000E+00+
*       6.0042735647E+01               0
GRID*               3353               0-5.301578409E+000.0000000000E+00+
*       5.9075077181E+01               0
GRID*               3354               05.5978205453E+000.0000000000E+00+
*       4.4627091807E+01               0
GRID*               3355               07.4298025231E+000.0000000000E+00+
*       4.3890770979E+01               0
GRID*               3356               09.2463432444E+000.0000000000E+00+
*       4.3135738180E+01               0
GRID*               3357               01.1016257123E+010.0000000000E+00+
*       4.2400694609E+01               0
GRID*               3358               01.2757942242E+010.0000000000E+00+
*       4.1675667177E+01               0
GRID*               3359               01.4522691624E+010.0000000000E+00+
*       4.0930929639E+01               0
GRID*               3360               01.6357709707E+010.0000000000E+00+
*       4.0177033650E+01               0
GRID*               3361               01.8262157058E+010.0000000000E+00+
*       3.9461178744E+01               0
GRID*               3362               08.3113945621E+000.0000000000E+00+
*       5.5315264950E+01               0
GRID*               3363               01.0176623435E+010.0000000000E+00+
*       5.5102445283E+01               0
GRID*               3364               01.2089802406E+010.0000000000E+00+
*       5.4859090976E+01               0
GRID*               3365               01.4071463517E+010.0000000000E+00+
*       5.4577969399E+01               0
GRID*               3366               03.6662064982E+000.0000000000E+00+
*       6.0317058040E+01               0
GRID*               3367               04.9738499036E+000.0000000000E+00+
*       6.2510782471E+01               0
GRID*               3368               0-6.870616014E+000.0000000000E+00+
*       6.2019940673E+01               0
GRID*               3369               0-5.239549420E+000.0000000000E+00+
*       6.0951334199E+01               0
GRID*               3370               0-5.107220605E+000.0000000000E+00+
*       6.2831134179E+01               0
GRID*               3371               0-1.967187170E-010.0000000000E+00+
*       6.3913300132E+01               0
GRID*               3372               05.2700430547E-010.0000000000E+00+
*       6.2299087578E+01               0
GRID*               3373               01.3160972262E+000.0000000000E+00+
*       6.0665385324E+01               0
GRID*               3374               01.7147295747E+000.0000000000E+00+
*       6.3784494986E+01               0
GRID*               3375               02.5741319364E+000.0000000000E+00+
*       6.2213625759E+01               0
GRID*               3376               03.4033241337E+000.0000000000E+00+
*       6.3694063721E+01               0
GRID*               3377               0-3.687456209E+000.0000000000E+00+
*       5.9999127265E+01               0
GRID*               3378               0-3.556761742E+000.0000000000E+00+
*       6.1752649197E+01               0
GRID*               3379               0-3.330744653E+000.0000000000E+00+
*       6.3507608593E+01               0
GRID*               3380               0-1.620161772E+000.0000000000E+00+
*       6.2447747648E+01               0
GRID*               3381               0-1.823437735E+000.0000000000E+00+
*       6.4101744350E+01               0
GRID*               3382               0-6.607312882E-010.0000000000E+00+
*       6.0776935130E+01               0
GRID*               3383               0-2.302309194E+000.0000000000E+00+
*       6.0811608468E+01               0
GRID*               3384               07.5317340940E+000.0000000000E+00+
*       5.7037584240E+01               0
GRID*               3385               06.8271132382E+000.0000000000E+00+
*       5.8769224937E+01               0
GRID*               3386               06.0451754473E+000.0000000000E+00+
*       6.0494216730E+01               0
GRID*               3387               05.1293908982E+000.0000000000E+00+
*       5.9001105790E+01               0
GRID*               3388               01.3255717845E+010.0000000000E+00+
*       5.6359738183E+01               0
GRID*               3389               01.1320279874E+010.0000000000E+00+
*       5.6640999349E+01               0
GRID*               3390               09.4399799856E+000.0000000000E+00+
*       5.6861348074E+01               0
GRID*               3391               01.2393688378E+010.0000000000E+00+
*       5.8177237881E+01               0
GRID*               3392               01.0570358910E+010.0000000000E+00+
*       5.8483453841E+01               0
GRID*               3393               08.7364541358E+000.0000000000E+00+
*       5.8589261493E+01               0
GRID*               3394               07.4059723792E+000.0000000000E+00+
*       6.2082924770E+01               0
GRID*               3395               08.1507848150E+000.0000000000E+00+
*       6.0315520889E+01               0
GRID*               3396               09.8810698350E+000.0000000000E+00+
*       6.0048576577E+01               0
GRID*               3397               01.6398674167E+010.0000000000E+00+
*       4.7190765923E+01               0
GRID*               3398               01.4591378227E+010.0000000000E+00+
*       4.7776469031E+01               0
GRID*               3399               01.2836186494E+010.0000000000E+00+
*       4.8316193343E+01               0
GRID*               3400               01.1168064629E+010.0000000000E+00+
*       4.8788820300E+01               0
GRID*               3401               09.4788592768E+000.0000000000E+00+
*       4.9127949918E+01               0
GRID*               3402               01.7346918522E+010.0000000000E+00+
*       4.3370135660E+01               0
GRID*               3403               01.5947527751E+010.0000000000E+00+
*       4.2136718803E+01               0
GRID*               3404               01.7803690271E+010.0000000000E+00+
*       4.1430274897E+01               0
GRID*               3405               01.5069117865E+010.0000000000E+00+
*       4.5935714649E+01               0
GRID*               3406               01.5518411061E+010.0000000000E+00+
*       4.4053703316E+01               0
GRID*               3407               01.6879978119E+010.0000000000E+00+
*       4.5290060919E+01               0
GRID*               3408               01.3735605161E+010.0000000000E+00+
*       4.4733792616E+01               0
GRID*               3409               01.2383171264E+010.0000000000E+00+
*       4.3566617266E+01               0
GRID*               3410               01.4142574068E+010.0000000000E+00+
*       4.2851134005E+01               0
GRID*               3411               01.1645864014E+010.0000000000E+00+
*       4.7176017629E+01               0
GRID*               3412               01.0342714804E+010.0000000000E+00+
*       4.6190286512E+01               0
GRID*               3413               08.8744219097E+000.0000000000E+00+
*       4.5132486173E+01               0
GRID*               3414               01.2008862201E+010.0000000000E+00+
*       4.5426622381E+01               0
GRID*               3415               01.3311970866E+010.0000000000E+00+
*       4.6562695257E+01               0
GRID*               3416               01.0647519640E+010.0000000000E+00+
*       4.4310025216E+01               0
GRID*               3417               01.0255879794E+010.0000000000E+00+
*       4.7744755033E+01               0
GRID*               3418               08.5322386219E+000.0000000000E+00+
*       4.7421372281E+01               0
GRID*               3419               07.0375216346E+000.0000000000E+00+
*       4.5936526264E+01               0
GRID*               3420               01.5369732272E+010.0000000000E+00+
*       5.0928973690E+01               0
GRID*               3421               01.4074386117E+010.0000000000E+00+
*       4.9572829763E+01               0
GRID*               3422               01.5902741189E+010.0000000000E+00+
*       4.9068454062E+01               0
GRID*               3423               01.2824372137E+010.0000000000E+00+
*       5.3097823138E+01               0
GRID*               3424               01.3489610160E+010.0000000000E+00+
*       5.1340564434E+01               0
GRID*               3425               01.4776966687E+010.0000000000E+00+
*       5.2765903603E+01               0
GRID*               3426               01.1634725638E+010.0000000000E+00+
*       5.1675093161E+01               0
GRID*               3427               01.0540377343E+010.0000000000E+00+
*       5.0349698963E+01               0
GRID*               3428               01.2288260153E+010.0000000000E+00+
*       5.0005072979E+01               0
GRID*               3429               01.0916504083E+010.0000000000E+00+
*       5.3363653831E+01               0
GRID*               3430               08.9994632612E+000.0000000000E+00+
*       5.3557200332E+01               0
GRID*               3431               09.7806374054E+000.0000000000E+00+
*       5.1897678932E+01               0
GRID*               3432               08.9293192775E+000.0000000000E+00+
*       5.0608476189E+01               0
GRID*               3433               0-1.632320572E+010.0000000000E+00+
*       4.6789937239E+01               0
GRID*               3434               0-1.434153677E+010.0000000000E+00+
*       4.6848266466E+01               0
GRID*               3435               0-1.247270839E+010.0000000000E+00+
*       4.6977079395E+01               0
GRID*               3436               0-1.055930899E+010.0000000000E+00+
*       4.7326075555E+01               0
GRID*               3437               0-8.468821603E+000.0000000000E+00+
*       4.7742520190E+01               0
GRID*               3438               0-1.508617465E+010.0000000000E+00+
*       5.1074297134E+01               0
GRID*               3439               0-1.307657702E+010.0000000000E+00+
*       5.1801898644E+01               0
GRID*               3440               0-1.111179136E+010.0000000000E+00+
*       5.2477503691E+01               0
GRID*               3441               0-9.156505474E+000.0000000000E+00+
*       5.3120358691E+01               0
GRID*               3442               0-8.709037136E+000.0000000000E+00+
*       5.9100587061E+01               0
GRID*               3443               0-8.727478206E+000.0000000000E+00+
*       5.7071353573E+01               0
GRID*               3444               0-8.855369452E+000.0000000000E+00+
*       5.5047405091E+01               0
GRID*               3445               0-6.914502239E+000.0000000000E+00+
*       5.8017931720E+01               0
GRID*               3446               0-1.468022304E+010.0000000000E+00+
*       5.3067107625E+01               0
GRID*               3447               0-1.082808886E+010.0000000000E+00+
*       5.4428423182E+01               0
GRID*               3448               0-1.274060863E+010.0000000000E+00+
*       5.3774137658E+01               0
GRID*               3449               0-1.043683042E+010.0000000000E+00+
*       6.0123797259E+01               0
GRID*               3450               0-1.060374281E+010.0000000000E+00+
*       5.8243088555E+01               0
GRID*               3451               0-1.062811563E+010.0000000000E+00+
*       5.6354189345E+01               0
GRID*               3452               0-1.426993461E+010.0000000000E+00+
*       5.5072179327E+01               0
GRID*               3453               0-1.247635833E+010.0000000000E+00+
*       5.5788768022E+01               0
GRID*               3454               0-1.222839072E+010.0000000000E+00+
*       5.7514264008E+01               0
GRID*               3455               0-1.537370528E+010.0000000000E+00+
*       4.8823642473E+01               0
GRID*               3456               0-1.346216662E+010.0000000000E+00+
*       4.8231933825E+01               0
GRID*               3457               0-1.337575517E+010.0000000000E+00+
*       4.9866231302E+01               0
GRID*               3458               0-1.187374278E+010.0000000000E+00+
*       4.8689288165E+01               0
GRID*               3459               0-1.145528901E+010.0000000000E+00+
*       5.0537401993E+01               0
GRID*               3460               0-9.867425534E+000.0000000000E+00+
*       4.9217339919E+01               0
GRID*               3461               0-9.398948121E+000.0000000000E+00+
*       5.1184400752E+01               0
GRID*               3462               0-1.103803227E+000.0000000000E+00+
*       4.2746616905E+01               0
GRID*               3463               0-2.879725401E-010.0000000000E+00+
*       4.0934499539E+01               0
GRID*               3464               05.4082102155E-010.0000000000E+00+
*       3.9162870844E+01               0
GRID*               3465               01.3781098496E+000.0000000000E+00+
*       3.7408003743E+01               0
GRID*               3466               02.1236550762E+000.0000000000E+00+
*       3.5598958579E+01               0
GRID*               3467               02.5834424301E+000.0000000000E+00+
*       3.3390067004E+01               0
GRID*               3468               03.7666190226E+000.0000000000E+00+
*       3.1256069516E+01               0
GRID*               3469               04.7475075247E+000.0000000000E+00+
*       2.9346261401E+01               0
GRID*               3470               05.6536320881E+000.0000000000E+00+
*       2.7499194914E+01               0
GRID*               3471               06.5172210284E+000.0000000000E+00+
*       2.5683227088E+01               0
GRID*               3472               07.3545465052E+000.0000000000E+00+
*       2.3888856072E+01               0
GRID*               3473               08.1759904161E+000.0000000000E+00+
*       2.2107986958E+01               0
GRID*               3474               08.9904458444E+000.0000000000E+00+
*       2.0343625027E+01               0
GRID*               3475               09.8087443975E+000.0000000000E+00+
*       1.8603741146E+01               0
GRID*               3476               01.0649071651E+010.0000000000E+00+
*       1.6884915565E+01               0
GRID*               3477               01.1557377008E+010.0000000000E+00+
*       1.5129284666E+01               0
GRID*               3478               01.2440260292E+010.0000000000E+00+
*       1.3230987761E+01               0
GRID*               3479               01.3190524597E+010.0000000000E+00+
*       1.1275800074E+01               0
GRID*               3480               01.3869871810E+010.0000000000E+00+
*       9.3605572488E+00               0
GRID*               3481               01.4513754140E+010.0000000000E+00+
*       7.4111040158E+00               0
GRID*               3482               01.5277417277E+010.0000000000E+00+
*       5.4252122534E+00               0
GRID*               3483               01.6176138536E+010.0000000000E+00+
*       3.5332805748E+00               0
GRID*               3484               01.7088233121E+010.0000000000E+00+
*       1.7390069049E+00               0
GRID*               3485               02.3208544967E+010.0000000000E+00+
*       1.9767669193E+01               0
GRID*               3486               02.1842928707E+010.0000000000E+00+
*       1.8232160422E+01               0
GRID*               3487               02.0500281070E+010.0000000000E+00+
*       1.6736240861E+01               0
GRID*               3488               01.9168846515E+010.0000000000E+00+
*       1.5275065617E+01               0
GRID*               3489               01.7832199490E+010.0000000000E+00+
*       1.3831422779E+01               0
GRID*               3490               01.6490000662E+010.0000000000E+00+
*       1.2366946734E+01               0
GRID*               3491               01.5167698155E+010.0000000000E+00+
*       1.0868884183E+01               0
GRID*               3492               01.7119667511E+010.0000000000E+00+
*       1.0453528376E+01               0
GRID*               3493               01.9014406410E+010.0000000000E+00+
*       1.0061101804E+01               0
GRID*               3494               02.0838815502E+010.0000000000E+00+
*       9.6756401689E+00               0
GRID*               3495               02.2607459516E+010.0000000000E+00+
*       9.2492504140E+00               0
GRID*               3496               02.4381972654E+010.0000000000E+00+
*       8.7629567505E+00               0
GRID*               3497               02.6201370952E+010.0000000000E+00+
*       8.2566767260E+00               0
GRID*               3498               01.9718559373E+010.0000000000E+00+
*       1.3389513414E+01               0
GRID*               3499               02.1575260280E+010.0000000000E+00+
*       1.2966089787E+01               0
GRID*               3500               02.3410280328E+010.0000000000E+00+
*       1.2541059429E+01               0
GRID*               3501               02.5234504016E+010.0000000000E+00+
*       1.2101235028E+01               0
GRID*               3502               02.2370492092E+010.0000000000E+00+
*       1.6340162802E+01               0
GRID*               3503               02.4230379990E+010.0000000000E+00+
*       1.5937963837E+01               0
GRID*               3504               02.3721846983E+010.0000000000E+00+
*       1.7856437008E+01               0
GRID*               3505               02.1037717674E+010.0000000000E+00+
*       1.4857879913E+01               0
GRID*               3506               02.2892987753E+010.0000000000E+00+
*       1.4443474144E+01               0
GRID*               3507               02.4734940104E+010.0000000000E+00+
*       1.4020917905E+01               0
GRID*               3508               01.8410641597E+010.0000000000E+00+
*       1.1935298159E+01               0
GRID*               3509               02.0278145986E+010.0000000000E+00+
*       1.1519096556E+01               0
GRID*               3510               02.2103386452E+010.0000000000E+00+
*       1.1099158256E+01               0
GRID*               3511               02.3909069247E+010.0000000000E+00+
*       1.0656032472E+01               0
GRID*               3512               02.5721250053E+010.0000000000E+00+
*       1.0187159864E+01               0
GRID*               3513               01.8186006107E+010.0000000000E+00+
*       3.4347126866E+00               0
GRID*               3514               01.9264320934E+010.0000000000E+00+
*       5.0658219543E+00               0
GRID*               3515               02.0281399937E+010.0000000000E+00+
*       6.5862381332E+00               0
GRID*               3516               02.1362643988E+010.0000000000E+00+
*       7.9398196956E+00               0
GRID*               3517               01.6541483275E+010.0000000000E+00+
*       7.0597328328E+00               0
GRID*               3518               01.7774619616E+010.0000000000E+00+
*       8.5936122765E+00               0
GRID*               3519               01.5832144469E+010.0000000000E+00+
*       8.9603764711E+00               0
GRID*               3520               01.8475564679E+010.0000000000E+00+
*       6.7970243178E+00               0
GRID*               3521               01.9627194159E+010.0000000000E+00+
*       8.2753395698E+00               0
GRID*               3522               01.7323542108E+010.0000000000E+00+
*       5.2215391038E+00               0
GRID*               3523               02.3041715143E+010.0000000000E+00+
*       1.6380584324E+00               0
GRID*               3524               02.2109039453E+010.0000000000E+00+
*       3.3695538499E+00               0
GRID*               3525               02.1116052075E+010.0000000000E+00+
*       5.0290749130E+00               0
GRID*               3526               01.9081458422E+010.0000000000E+00+
*       1.7043691122E+00               0
GRID*               3527               02.1062356108E+010.0000000000E+00+
*       1.6809905034E+00               0
GRID*               3528               02.0135691889E+010.0000000000E+00+
*       3.3838728743E+00               0
GRID*               3529               02.3021835348E+010.0000000000E+00+
*       7.4394630397E+00               0
GRID*               3530               02.4812410765E+010.0000000000E+00+
*       6.8264484336E+00               0
GRID*               3531               02.6690535945E+010.0000000000E+00+
*       6.3134544206E+00               0
GRID*               3532               02.4106238318E+010.0000000000E+00+
*       3.2672865196E+00               0
GRID*               3533               02.5339699665E+010.0000000000E+00+
*       4.8419198805E+00               0
GRID*               3534               02.3187006082E+010.0000000000E+00+
*       5.3183137326E+00               0
GRID*               3535               02.1774954647E+010.0000000000E+00+
*       6.4788891668E+00               0
GRID*               3536               02.5966474068E+010.0000000000E+00+
*       2.9811066807E+00               0
GRID*               3537               02.7698143421E+010.0000000000E+00+
*       2.4735402096E+00               0
GRID*               3538               02.7207078678E+010.0000000000E+00+
*       4.3833528430E+00               0
GRID*               3539               02.6488409316E+010.0000000000E+00+
*       1.4232086699E+00               0
GRID*               3540               02.4936359451E+010.0000000000E+00+
*       1.5510428281E+00               0
GRID*               3541               02.1305541926E+010.0000000000E+00+
*       2.0117761661E+01               0
GRID*               3542               01.9399743954E+010.0000000000E+00+
*       2.0453303103E+01               0
GRID*               3543               01.7509953966E+010.0000000000E+00+
*       2.0779569451E+01               0
GRID*               3544               01.5646926982E+010.0000000000E+00+
*       2.1088600385E+01               0
GRID*               3545               01.3801161934E+010.0000000000E+00+
*       2.1372691227E+01               0
GRID*               3546               01.1947448285E+010.0000000000E+00+
*       2.1634033128E+01               0
GRID*               3547               01.0073634298E+010.0000000000E+00+
*       2.1876349002E+01               0
GRID*               3548               01.4474270383E+010.0000000000E+00+
*       1.9654287313E+01               0
GRID*               3549               01.5071305006E+010.0000000000E+00+
*       1.7993720728E+01               0
GRID*               3550               01.5488916419E+010.0000000000E+00+
*       1.6272134527E+01               0
GRID*               3551               01.5904696822E+010.0000000000E+00+
*       1.4348480766E+01               0
GRID*               3552               01.8091175942E+010.0000000000E+00+
*       1.8978179369E+01               0
GRID*               3553               01.8635480736E+010.0000000000E+00+
*       1.7149098218E+01               0
GRID*               3554               01.9961462564E+010.0000000000E+00+
*       1.8611486704E+01               0
GRID*               3555               01.7304763451E+010.0000000000E+00+
*       1.5744544606E+01               0
GRID*               3556               01.6805796116E+010.0000000000E+00+
*       1.7580447173E+01               0
GRID*               3557               01.6264572179E+010.0000000000E+00+
*       1.9345261980E+01               0
GRID*               3558               01.0859330286E+010.0000000000E+00+
*       2.0129669528E+01               0
GRID*               3559               01.4496437367E+010.0000000000E+00+
*       1.2849818568E+01               0
GRID*               3560               01.3773371268E+010.0000000000E+00+
*       1.5070117431E+01               0
GRID*               3561               01.4048060004E+010.0000000000E+00+
*       1.6903650044E+01               0
GRID*               3562               01.2502730274E+010.0000000000E+00+
*       1.6796034663E+01               0
GRID*               3563               01.1653802020E+010.0000000000E+00+
*       1.8431358086E+01               0
GRID*               3564               01.3409011671E+010.0000000000E+00+
*       1.8279350919E+01               0
GRID*               3565               01.2693125502E+010.0000000000E+00+
*       1.9915141296E+01               0
GRID*               3566               01.9791783367E+010.0000000000E+00+
*       3.3537050031E+01               0
GRID*               3567               01.8449112119E+010.0000000000E+00+
*       3.2167104171E+01               0
GRID*               3568               01.7179573323E+010.0000000000E+00+
*       3.0797996424E+01               0
GRID*               3569               01.5969962683E+010.0000000000E+00+
*       2.9387649026E+01               0
GRID*               3570               01.4768003914E+010.0000000000E+00+
*       2.7922433123E+01               0
GRID*               3571               01.3560006373E+010.0000000000E+00+
*       2.6424216257E+01               0
GRID*               3572               01.2363847597E+010.0000000000E+00+
*       2.4913727560E+01               0
GRID*               3573               01.1199368613E+010.0000000000E+00+
*       2.3398958269E+01               0
GRID*               3574               01.8799443867E+010.0000000000E+00+
*       2.2296154996E+01               0
GRID*               3575               01.8137704509E+010.0000000000E+00+
*       2.4129191151E+01               0
GRID*               3576               01.7408021263E+010.0000000000E+00+
*       2.5927210661E+01               0
GRID*               3577               01.6662875352E+010.0000000000E+00+
*       2.7666205756E+01               0
GRID*               3578               01.4982119521E+010.0000000000E+00+
*       2.2861096859E+01               0
GRID*               3579               01.4279878670E+010.0000000000E+00+
*       2.4641653449E+01               0
GRID*               3580               01.3096004833E+010.0000000000E+00+
*       2.3136553798E+01               0
GRID*               3581               01.5478737007E+010.0000000000E+00+
*       2.6160815079E+01               0
GRID*               3582               01.6877307661E+010.0000000000E+00+
*       2.2587775756E+01               0
GRID*               3583               01.6192685358E+010.0000000000E+00+
*       2.4385543541E+01               0
GRID*               3584               02.0742270188E+010.0000000000E+00+
*       2.1999994957E+01               0
GRID*               3585               02.0127015479E+010.0000000000E+00+
*       2.3882272303E+01               0
GRID*               3586               01.9411323425E+010.0000000000E+00+
*       2.5767012841E+01               0
GRID*               3587               01.8539921207E+010.0000000000E+00+
*       2.7509630998E+01               0
GRID*               3588               01.7776267093E+010.0000000000E+00+
*       2.9113679298E+01               0
GRID*               3589               02.2685209059E+010.0000000000E+00+
*       2.1682151019E+01               0
GRID*               3590               02.0280603196E+010.0000000000E+00+
*       3.1654020452E+01               0
GRID*               3591               02.2138091887E+010.0000000000E+00+
*       2.3598139133E+01               0
GRID*               3592               01.8946915186E+010.0000000000E+00+
*       3.0407200836E+01               0
GRID*               3593               02.1535055983E+010.0000000000E+00+
*       2.5543902316E+01               0
GRID*               3594               02.0756830415E+010.0000000000E+00+
*       2.7684986351E+01               0
GRID*               3595               02.0679045155E+010.0000000000E+00+
*       2.9815444823E+01               0
GRID*               3596               01.9318446316E+010.0000000000E+00+
*       2.8924342686E+01               0
GRID*               3597               01.5302153541E+010.0000000000E+00+
*       3.1175575731E+01               0
GRID*               3598               01.3373725146E+010.0000000000E+00+
*       3.1551034230E+01               0
GRID*               3599               01.1401854254E+010.0000000000E+00+
*       3.1942674452E+01               0
GRID*               3600               09.3607918389E+000.0000000000E+00+
*       3.2340503956E+01               0
GRID*               3601               07.2399166271E+000.0000000000E+00+
*       3.2709349051E+01               0
GRID*               3602               05.0323883967E+000.0000000000E+00+
*       3.3043401481E+01               0
GRID*               3603               08.4862402563E+000.0000000000E+00+
*       2.5447378694E+01               0
GRID*               3604               09.6602646825E+000.0000000000E+00+
*       2.6999518717E+01               0
GRID*               3605               01.0873261451E+010.0000000000E+00+
*       2.8538680028E+01               0
GRID*               3606               01.2114095063E+010.0000000000E+00+
*       3.0060936086E+01               0
GRID*               3607               06.8278041290E+000.0000000000E+00+
*       2.9121334652E+01               0
GRID*               3608               08.0633451670E+000.0000000000E+00+
*       3.0741477077E+01               0
GRID*               3609               05.9480364459E+000.0000000000E+00+
*       3.1032760850E+01               0
GRID*               3610               01.0115255942E+010.0000000000E+00+
*       3.0411113173E+01               0
GRID*               3611               08.8689957264E+000.0000000000E+00+
*       2.8845939690E+01               0
GRID*               3612               07.6699576226E+000.0000000000E+00+
*       2.7263698571E+01               0
GRID*               3613               01.0436608937E+010.0000000000E+00+
*       2.5186611614E+01               0
GRID*               3614               09.2889560792E+000.0000000000E+00+
*       2.3649356959E+01               0
GRID*               3615               01.1622992306E+010.0000000000E+00+
*       2.6713470619E+01               0
GRID*               3616               01.4061925825E+010.0000000000E+00+
*       2.9720474045E+01               0
GRID*               3617               01.2833946366E+010.0000000000E+00+
*       2.8230296341E+01               0
GRID*               3618               01.9263543902E+010.0000000000E+00+
*       3.5479919512E+01               0
GRID*               3619               01.7877001879E+010.0000000000E+00+
*       3.4059760385E+01               0
GRID*               3620               01.6556256342E+010.0000000000E+00+
*       3.2623043456E+01               0
GRID*               3621               01.8743106847E+010.0000000000E+00+
*       3.7466697041E+01               0
GRID*               3622               01.7272340301E+010.0000000000E+00+
*       3.6057977276E+01               0
GRID*               3623               01.5884661625E+010.0000000000E+00+
*       3.4543934069E+01               0
GRID*               3624               01.4621446062E+010.0000000000E+00+
*       3.3032463572E+01               0
GRID*               3625               01.2689903491E+010.0000000000E+00+
*       3.3435274877E+01               0
GRID*               3626               01.0708858024E+010.0000000000E+00+
*       3.3911910427E+01               0
GRID*               3627               08.5899945073E+000.0000000000E+00+
*       3.4376789779E+01               0
GRID*               3628               06.3954506241E+000.0000000000E+00+
*       3.4757429108E+01               0
GRID*               3629               04.1795124951E+000.0000000000E+00+
*       3.5142887375E+01               0
GRID*               3630               01.4836228826E+010.0000000000E+00+
*       3.8956791850E+01               0
GRID*               3631               01.5027029083E+010.0000000000E+00+
*       3.6699535603E+01               0
GRID*               3632               01.6753924471E+010.0000000000E+00+
*       3.8143708750E+01               0
GRID*               3633               01.3079930385E+010.0000000000E+00+
*       3.9797313971E+01               0
GRID*               3634               01.3267178324E+010.0000000000E+00+
*       3.7950775882E+01               0
GRID*               3635               01.3205907521E+010.0000000000E+00+
*       3.6379040307E+01               0
GRID*               3636               01.3910996144E+010.0000000000E+00+
*       3.4889865054E+01               0
GRID*               3637               01.1390049995E+010.0000000000E+00+
*       4.0535043794E+01               0
GRID*               3638               01.1706851355E+010.0000000000E+00+
*       3.8770855504E+01               0
GRID*               3639               01.1832610902E+010.0000000000E+00+
*       3.7082794045E+01               0
GRID*               3640               01.2082064606E+010.0000000000E+00+
*       3.5307734194E+01               0
GRID*               3641               05.9711416760E+000.0000000000E+00+
*       4.2649203550E+01               0
GRID*               3642               06.3745949546E+000.0000000000E+00+
*       4.0597266505E+01               0
GRID*               3643               06.9465494767E+000.0000000000E+00+
*       3.8501977245E+01               0
GRID*               3644               07.7501025211E+000.0000000000E+00+
*       3.6449545855E+01               0
GRID*               3645               01.0551102646E+010.0000000000E+00+
*       3.7911523225E+01               0
GRID*               3646               08.9557488031E+000.0000000000E+00+
*       3.8070765298E+01               0
GRID*               3647               01.0066727990E+010.0000000000E+00+
*       3.6156860935E+01               0
GRID*               3648               01.0103500267E+010.0000000000E+00+
*       3.9402031916E+01               0
GRID*               3649               08.3192640757E+000.0000000000E+00+
*       3.9947248996E+01               0
GRID*               3650               09.6550438187E+000.0000000000E+00+
*       4.1217816582E+01               0
GRID*               3651               07.8347456636E+000.0000000000E+00+
*       4.1907756946E+01               0
GRID*               3652               04.6143396937E+000.0000000000E+00+
*       3.9154501060E+01               0
GRID*               3653               03.3675632913E+000.0000000000E+00+
*       3.7190855001E+01               0
GRID*               3654               05.5439849052E+000.0000000000E+00+
*       3.6859573187E+01               0
GRID*               3655               04.4756552041E+000.0000000000E+00+
*       4.1439807849E+01               0
GRID*               3656               03.1244928973E+000.0000000000E+00+
*       4.0517560356E+01               0
GRID*               3657               02.4103615929E+000.0000000000E+00+
*       3.9028405211E+01               0
GRID*               3658               04.0827067417E+000.0000000000E+00+
*       4.3459118840E+01               0
GRID*               3659               02.6671572250E+000.0000000000E+00+
*       4.2182428081E+01               0
GRID*               3660               01.5416243968E+000.0000000000E+00+
*       4.0730659545E+01               0
GRID*               3661               07.8623796105E-010.0000000000E+00+
*       4.2570217117E+01               0
GRID*               3662               03.6233094550E+000.0000000000E+00+
*       2.7662205216E+01               0
GRID*               3663               02.5490943565E+000.0000000000E+00+
*       2.6000874469E+01               0
GRID*               3664               01.5091798613E+000.0000000000E+00+
*       2.4354223541E+01               0
GRID*               3665               04.9565007776E-010.0000000000E+00+
*       2.2711498159E+01               0
GRID*               3666               0-4.975511771E-010.0000000000E+00+
*       2.1069931749E+01               0
GRID*               3667               0-1.474141363E+000.0000000000E+00+
*       1.9437474003E+01               0
GRID*               3668               0-2.435980563E+000.0000000000E+00+
*       1.7821686836E+01               0
GRID*               3669               0-3.382303491E+000.0000000000E+00+
*       1.6247175776E+01               0
GRID*               3670               0-4.320754689E+000.0000000000E+00+
*       1.4763762175E+01               0
GRID*               3671               0-5.411424091E+000.0000000000E+00+
*       1.3381566823E+01               0
GRID*               3672               0-6.657638744E+000.0000000000E+00+
*       1.1873050744E+01               0
GRID*               3673               0-7.816966824E+000.0000000000E+00+
*       1.0188446423E+01               0
GRID*               3674               0-8.901852226E+000.0000000000E+00+
*       8.4918283187E+00               0
GRID*               3675               0-9.949017503E+000.0000000000E+00+
*       6.7960911210E+00               0
GRID*               3676               0-1.097617589E+010.0000000000E+00+
*       5.1006203619E+00               0
GRID*               3677               0-1.199178065E+010.0000000000E+00+
*       3.4037242508E+00               0
GRID*               3678               0-1.299932242E+010.0000000000E+00+
*       1.7041890486E+00               0
GRID*               3679               08.9683997574E+000.0000000000E+00+
*       1.7614537490E+00               0
GRID*               3680               07.9356298095E+000.0000000000E+00+
*       3.5000542723E+00               0
GRID*               3681               06.9100698061E+000.0000000000E+00+
*       5.2325681437E+00               0
GRID*               3682               05.8718697950E+000.0000000000E+00+
*       7.0032746561E+00               0
GRID*               3683               04.7594947630E+000.0000000000E+00+
*       8.8593114282E+00               0
GRID*               3684               03.4899821268E+000.0000000000E+00+
*       1.0726376266E+01               0
GRID*               3685               02.2872312921E+000.0000000000E+00+
*       1.2562891706E+01               0
GRID*               3686               01.2993885123E+000.0000000000E+00+
*       1.4360128114E+01               0
GRID*               3687               03.7291656163E-010.0000000000E+00+
*       1.6086367341E+01               0
GRID*               3688               0-5.457536507E-010.0000000000E+00+
*       1.7769621012E+01               0
GRID*               3689               09.8638532848E-010.0000000000E+00+
*       1.7108713446E+00               0
GRID*               3690               0-3.023834690E-020.0000000000E+00+
*       3.4025057898E+00               0
GRID*               3691               0-1.048638793E+000.0000000000E+00+
*       5.0666519289E+00               0
GRID*               3692               0-2.047422301E+000.0000000000E+00+
*       6.6919725247E+00               0
GRID*               3693               0-2.986017008E+000.0000000000E+00+
*       8.2955125413E+00               0
GRID*               3694               0-3.855061000E+000.0000000000E+00+
*       9.9345491866E+00               0
GRID*               3695               0-4.674419517E+000.0000000000E+00+
*       1.1641197008E+01               0
GRID*               3696               0-4.985935092E+000.0000000000E+00+
*       1.6829186930E+00               0
GRID*               3697               0-5.968116112E+000.0000000000E+00+
*       3.3659747145E+00               0
GRID*               3698               0-6.946437305E+000.0000000000E+00+
*       5.0554769303E+00               0
GRID*               3699               0-7.921905909E+000.0000000000E+00+
*       6.7610092180E+00               0
GRID*               3700               0-8.986261052E+000.0000000000E+00+
*       1.6904043255E+00               0
GRID*               3701               0-9.977867461E+000.0000000000E+00+
*       3.3903871064E+00               0
GRID*               3702               0-1.099242807E+010.0000000000E+00+
*       1.6980496595E+00               0
GRID*               3703               0-6.984558456E+000.0000000000E+00+
*       1.6857797735E+00               0
GRID*               3704               0-7.969592067E+000.0000000000E+00+
*       3.3776304353E+00               0
GRID*               3705               0-8.956532989E+000.0000000000E+00+
*       5.0802047589E+00               0
GRID*               3706               0-5.789357056E+000.0000000000E+00+
*       1.0069143741E+01               0
GRID*               3707               0-6.870160444E+000.0000000000E+00+
*       8.4305480503E+00               0
GRID*               3708               0-4.893059652E+000.0000000000E+00+
*       8.3570691180E+00               0
GRID*               3709               0-5.922543548E+000.0000000000E+00+
*       6.7226533608E+00               0
GRID*               3710               0-3.965298843E+000.0000000000E+00+
*       6.6920036635E+00               0
GRID*               3711               0-2.008305254E+000.0000000000E+00+
*       3.3765747501E+00               0
GRID*               3712               0-3.983930187E+000.0000000000E+00+
*       3.3655850416E+00               0
GRID*               3713               0-2.997540136E+000.0000000000E+00+
*       1.6873124330E+00               0
GRID*               3714               0-1.009144181E+000.0000000000E+00+
*       1.6965236974E+00               0
GRID*               3715               0-4.963006764E+000.0000000000E+00+
*       5.0408906316E+00               0
GRID*               3716               0-3.003539283E+000.0000000000E+00+
*       5.0400973884E+00               0
GRID*               3717               06.9724238149E+000.0000000000E+00+
*       1.7479861609E+00               0
GRID*               3718               04.9768834355E+000.0000000000E+00+
*       1.7379614896E+00               0
GRID*               3719               02.9790040372E+000.0000000000E+00+
*       1.7255748984E+00               0
GRID*               3720               05.9431431509E+000.0000000000E+00+
*       3.4851486885E+00               0
GRID*               3721               03.9442240233E+000.0000000000E+00+
*       3.4658193298E+00               0
GRID*               3722               01.9476053624E+000.0000000000E+00+
*       3.4355614415E+00               0
GRID*               3723               04.8973338320E+000.0000000000E+00+
*       5.2242058582E+00               0
GRID*               3724               02.8837571441E+000.0000000000E+00+
*       5.1834617913E+00               0
GRID*               3725               08.9693768238E-010.0000000000E+00+
*       5.1207882780E+00               0
GRID*               3726               0-3.571126137E+000.0000000000E+00+
*       1.3135971545E+01               0
GRID*               3727               0-2.525778752E+000.0000000000E+00+
*       1.4627800335E+01               0
GRID*               3728               0-1.527019383E+000.0000000000E+00+
*       1.6173456521E+01               0
GRID*               3729               03.8007468067E+000.0000000000E+00+
*       6.9781976422E+00               0
GRID*               3730               01.7719844786E+000.0000000000E+00+
*       6.8739925306E+00               0
GRID*               3731               0-1.675586790E-010.0000000000E+00+
*       6.7539404346E+00               0
GRID*               3732               0-1.189608120E+000.0000000000E+00+
*       8.2815950649E+00               0
GRID*               3733               0-2.045340921E+000.0000000000E+00+
*       9.7986074439E+00               0
GRID*               3734               0-2.800846426E+000.0000000000E+00+
*       1.1438393344E+01               0
GRID*               3735               0-6.442064952E-010.0000000000E+00+
*       1.4482715112E+01               0
GRID*               3736               0-1.714224244E+000.0000000000E+00+
*       1.2929768112E+01               0
GRID*               3737               02.5930291778E+000.0000000000E+00+
*       8.7386416558E+00               0
GRID*               3738               02.2248893905E-010.0000000000E+00+
*       1.2696066234E+01               0
GRID*               3739               05.9377245827E-010.0000000000E+00+
*       8.4662793248E+00               0
GRID*               3740               0-9.739523454E-010.0000000000E+00+
*       1.1186179631E+01               0
GRID*               3741               0-5.254905469E-010.0000000000E+00+
*       9.6501244014E+00               0
GRID*               3742               01.0979846046E+000.0000000000E+00+
*       1.0577735172E+01               0
GRID*               3743               01.0973279601E+010.0000000000E+00+
*       1.7853801551E+00               0
GRID*               3744               09.9127776722E+000.0000000000E+00+
*       3.5369440392E+00               0
GRID*               3745               08.8684341566E+000.0000000000E+00+
*       5.2369745118E+00               0
GRID*               3746               07.8787653187E+000.0000000000E+00+
*       6.9546297121E+00               0
GRID*               3747               06.9006938136E+000.0000000000E+00+
*       8.7965121267E+00               0
GRID*               3748               05.8346190075E+000.0000000000E+00+
*       1.0965283183E+01               0
GRID*               3749               04.2902987845E+000.0000000000E+00+
*       1.2633312900E+01               0
GRID*               3750               03.2341945570E+000.0000000000E+00+
*       1.4283550069E+01               0
GRID*               3751               02.2792864325E+000.0000000000E+00+
*       1.5980838780E+01               0
GRID*               3752               01.3542154104E+000.0000000000E+00+
*       1.7682020455E+01               0
GRID*               3753               04.3234223632E-010.0000000000E+00+
*       1.9375867500E+01               0
GRID*               3754               01.2932870938E+010.0000000000E+00+
*       5.7378597792E+00               0
GRID*               3755               01.1942284189E+010.0000000000E+00+
*       3.6261739494E+00               0
GRID*               3756               01.3008792437E+010.0000000000E+00+
*       1.8019157769E+00               0
GRID*               3757               01.4071168520E+010.0000000000E+00+
*       3.6419309036E+00               0
GRID*               3758               01.5058647791E+010.0000000000E+00+
*       1.7843897279E+00               0
GRID*               3759               02.4290877965E+000.0000000000E+00+
*       2.2623592348E+01               0
GRID*               3760               04.3563210737E+000.0000000000E+00+
*       2.2490841898E+01               0
GRID*               3761               06.2740699912E+000.0000000000E+00+
*       2.2312789127E+01               0
GRID*               3762               03.4658483132E+000.0000000000E+00+
*       2.4238235636E+01               0
GRID*               3763               05.4183518228E+000.0000000000E+00+
*       2.4078912163E+01               0
GRID*               3764               04.5382929167E+000.0000000000E+00+
*       2.5857259475E+01               0
GRID*               3765               01.2558226508E+010.0000000000E+00+
*       7.9300011136E+00               0
GRID*               3766               01.1340160956E+010.0000000000E+00+
*       6.8576245050E+00               0
GRID*               3767               01.0777696436E+010.0000000000E+00+
*       5.3130546510E+00               0
GRID*               3768               07.1194613573E+000.0000000000E+00+
*       2.0549640036E+01               0
GRID*               3769               07.9582239626E+000.0000000000E+00+
*       1.8801511334E+01               0
GRID*               3770               08.7934616868E+000.0000000000E+00+
*       1.7068682008E+01               0
GRID*               3771               09.6273378405E+000.0000000000E+00+
*       1.5325436307E+01               0
GRID*               3772               01.0447881869E+010.0000000000E+00+
*       1.3521312908E+01               0
GRID*               3773               01.1226045097E+010.0000000000E+00+
*       1.1652324698E+01               0
GRID*               3774               01.1940999265E+010.0000000000E+00+
*       9.7815424558E+00               0
GRID*               3775               01.0761817723E+010.0000000000E+00+
*       8.3587183356E+00               0
GRID*               3776               09.7602736767E+000.0000000000E+00+
*       6.8874038894E+00               0
GRID*               3777               05.2348342424E+000.0000000000E+00+
*       2.0732024351E+01               0
GRID*               3778               06.1005711760E+000.0000000000E+00+
*       1.8988356759E+01               0
GRID*               3779               06.9532340704E+000.0000000000E+00+
*       1.7262992944E+01               0
GRID*               3780               07.7799894619E+000.0000000000E+00+
*       1.5551899252E+01               0
GRID*               3781               08.5561421097E+000.0000000000E+00+
*       1.3815368165E+01               0
GRID*               3782               09.2954795044E+000.0000000000E+00+
*       1.1999740123E+01               0
GRID*               3783               01.0039148175E+010.0000000000E+00+
*       1.0142168001E+01               0
GRID*               3784               01.4219404127E+000.0000000000E+00+
*       2.0993033285E+01               0
GRID*               3785               03.3350115229E+000.0000000000E+00+
*       2.0879082863E+01               0
GRID*               3786               02.3367826241E+000.0000000000E+00+
*       1.9275322537E+01               0
GRID*               3787               04.2285426807E+000.0000000000E+00+
*       1.9145721727E+01               0
GRID*               3788               08.9090060293E+000.0000000000E+00+
*       8.5999334338E+00               0
GRID*               3789               05.1119902531E+000.0000000000E+00+
*       1.7431536489E+01               0
GRID*               3790               05.9757687799E+000.0000000000E+00+
*       1.5745876038E+01               0
GRID*               3791               06.7780888543E+000.0000000000E+00+
*       1.4110504776E+01               0
GRID*               3792               07.4148061322E+000.0000000000E+00+
*       1.2391956074E+01               0
GRID*               3793               08.0766669206E+000.0000000000E+00+
*       1.0483070988E+01               0
GRID*               3794               04.1544243306E+000.0000000000E+00+
*       1.5877272847E+01               0
GRID*               3795               03.2449312084E+000.0000000000E+00+
*       1.7563926391E+01               0
GRID*               3796               05.0576155039E+000.0000000000E+00+
*       1.4256876015E+01               0
GRID*               3797               05.8772371572E+000.0000000000E+00+
*       1.2902916891E+01               0
GRID*               3798               0-7.293330411E+000.0000000000E+00+
*       4.6198058633E+01               0
GRID*               3799               0-6.079208928E+000.0000000000E+00+
*       4.4702771980E+01               0
GRID*               3800               0-4.999267781E+000.0000000000E+00+
*       4.3031398955E+01               0
GRID*               3801               0-4.103537599E+000.0000000000E+00+
*       4.1233741598E+01               0
GRID*               3802               0-3.244328702E+000.0000000000E+00+
*       3.9457606068E+01               0
GRID*               3803               0-2.376673156E+000.0000000000E+00+
*       3.7715394024E+01               0
GRID*               3804               0-1.504943973E+000.0000000000E+00+
*       3.6029681908E+01               0
GRID*               3805               0-6.313163682E-010.0000000000E+00+
*       3.4439708760E+01               0
GRID*               3806               04.0396286692E-010.0000000000E+00+
*       3.2938466041E+01               0
GRID*               3807               01.5842046862E+000.0000000000E+00+
*       3.1288514296E+01               0
GRID*               3808               02.6506714182E+000.0000000000E+00+
*       2.9466929818E+01               0
GRID*               3809               02.9919500757E-010.0000000000E+00+
*       3.5919176087E+01               0
GRID*               3810               09.2702906611E-010.0000000000E+00+
*       3.4474584160E+01               0
GRID*               3811               0-1.339714590E+000.0000000000E+00+
*       3.9326801421E+01               0
GRID*               3812               0-5.008593815E-010.0000000000E+00+
*       3.7592333214E+01               0
GRID*               3813               0-3.005841405E+000.0000000000E+00+
*       4.2988404768E+01               0
GRID*               3814               0-2.178994410E+000.0000000000E+00+
*       4.1113689701E+01               0
GRID*               3815               0-4.599006543E-010.0000000000E+00+
*       3.1201285068E+01               0
GRID*               3816               0-1.414169522E+000.0000000000E+00+
*       2.9476895288E+01               0
GRID*               3817               0-2.395122539E+000.0000000000E+00+
*       2.7767953885E+01               0
GRID*               3818               0-3.381129185E+000.0000000000E+00+
*       2.6068474874E+01               0
GRID*               3819               0-4.363090736E+000.0000000000E+00+
*       2.4373130055E+01               0
GRID*               3820               0-5.334042732E+000.0000000000E+00+
*       2.2680471492E+01               0
GRID*               3821               0-6.285741696E+000.0000000000E+00+
*       2.0989739523E+01               0
GRID*               3822               0-7.207032694E+000.0000000000E+00+
*       1.9295387979E+01               0
GRID*               3823               0-8.085484140E+000.0000000000E+00+
*       1.7576229004E+01               0
GRID*               3824               0-8.929993151E+000.0000000000E+00+
*       1.5764853126E+01               0
GRID*               3825               0-9.882056390E+000.0000000000E+00+
*       1.3876651874E+01               0
GRID*               3826               0-1.093905409E+010.0000000000E+00+
*       1.2048003518E+01               0
GRID*               3827               0-1.198111182E+010.0000000000E+00+
*       1.0285919141E+01               0
GRID*               3828               0-1.300467208E+010.0000000000E+00+
*       8.5568042437E+00               0
GRID*               3829               0-1.401610787E+010.0000000000E+00+
*       6.8425533013E+00               0
GRID*               3830               0-1.501974830E+010.0000000000E+00+
*       5.1335893600E+00               0
GRID*               3831               0-1.601727973E+010.0000000000E+00+
*       3.4252858960E+00               0
GRID*               3832               0-1.700978565E+010.0000000000E+00+
*       1.7149565028E+00               0
GRID*               3833               0-1.299918681E+010.0000000000E+00+
*       5.1196970241E+00               0
GRID*               3834               0-1.500536203E+010.0000000000E+00+
*       1.7098915840E+00               0
GRID*               3835               0-1.400529999E+010.0000000000E+00+
*       3.4158779753E+00               0
GRID*               3836               0-1.095411956E+010.0000000000E+00+
*       8.5348141219E+00               0
GRID*               3837               0-1.198300810E+010.0000000000E+00+
*       6.8247048414E+00               0
GRID*               3838               0-9.897810459E+000.0000000000E+00+
*       1.0261193367E+01               0
GRID*               3839               0-8.786352623E+000.0000000000E+00+
*       1.2030353668E+01               0
GRID*               3840               05.8898531900E-010.0000000000E+00+
*       2.9495293150E+01               0
GRID*               3841               0-7.496946700E+000.0000000000E+00+
*       1.3981698246E+01               0
GRID*               3842               0-5.843231608E+000.0000000000E+00+
*       1.4901177871E+01               0
GRID*               3843               0-6.939565952E+000.0000000000E+00+
*       1.6050647291E+01               0
GRID*               3844               0-5.158327458E+000.0000000000E+00+
*       1.6249658579E+01               0
GRID*               3845               0-6.159965518E+000.0000000000E+00+
*       1.7729672986E+01               0
GRID*               3846               0-4.300070167E+000.0000000000E+00+
*       1.7812379758E+01               0
GRID*               3847               0-5.278837019E+000.0000000000E+00+
*       1.9388481384E+01               0
GRID*               3848               0-3.376314693E+000.0000000000E+00+
*       1.9434700844E+01               0
GRID*               3849               0-4.346200431E+000.0000000000E+00+
*       2.1053526010E+01               0
GRID*               3850               0-2.419911711E+000.0000000000E+00+
*       2.1079419013E+01               0
GRID*               3851               0-3.384562303E+000.0000000000E+00+
*       2.2724875152E+01               0
GRID*               3852               0-1.442391813E+000.0000000000E+00+
*       2.2734046893E+01               0
GRID*               3853               0-2.404703154E+000.0000000000E+00+
*       2.4400544951E+01               0
GRID*               3854               0-4.477414391E-010.0000000000E+00+
*       2.4393155729E+01               0
GRID*               3855               0-1.412760204E+000.0000000000E+00+
*       2.6080383023E+01               0
GRID*               3856               01.5935831035E+000.0000000000E+00+
*       2.7745372955E+01               0
GRID*               3857               0-4.135645781E-010.0000000000E+00+
*       2.7771535292E+01               0
GRID*               3858               05.6233393504E-010.0000000000E+00+
*       2.6054868645E+01               0
GRID*               3859               0-1.501291104E+000.0000000000E+00+
*       3.2827500801E+01               0
GRID*               3860               0-2.432096993E+000.0000000000E+00+
*       3.1137739509E+01               0
GRID*               3861               0-3.396886334E+000.0000000000E+00+
*       2.9429467868E+01               0
GRID*               3862               0-4.374611114E+000.0000000000E+00+
*       2.7718298940E+01               0
GRID*               3863               0-5.353861314E+000.0000000000E+00+
*       2.6008427422E+01               0
GRID*               3864               0-6.327284745E+000.0000000000E+00+
*       2.4301817525E+01               0
GRID*               3865               0-7.288869564E+000.0000000000E+00+
*       2.2599124337E+01               0
GRID*               3866               0-8.234116328E+000.0000000000E+00+
*       2.0896113027E+01               0
GRID*               3867               0-9.161699365E+000.0000000000E+00+
*       1.9179219489E+01               0
GRID*               3868               0-1.008034587E+010.0000000000E+00+
*       1.7424597531E+01               0
GRID*               3869               0-1.102329653E+010.0000000000E+00+
*       1.5623105486E+01               0
GRID*               3870               0-1.201232615E+010.0000000000E+00+
*       1.3811964677E+01               0
GRID*               3871               0-1.302355020E+010.0000000000E+00+
*       1.2032742976E+01               0
GRID*               3872               0-1.403224405E+010.0000000000E+00+
*       1.0288553763E+01               0
GRID*               3873               0-1.503508165E+010.0000000000E+00+
*       8.5662203383E+00               0
GRID*               3874               0-1.603345255E+010.0000000000E+00+
*       6.8538944077E+00               0
GRID*               3875               0-1.702772676E+010.0000000000E+00+
*       5.1448741061E+00               0
GRID*               3876               0-1.801802625E+010.0000000000E+00+
*       3.4356350294E+00               0
GRID*               3877               0-1.900669178E+010.0000000000E+00+
*       1.7225409920E+00               0
GRID*               3878               0-2.474644826E+000.0000000000E+00+
*       3.4438299871E+01               0
GRID*               3879               0-3.431547435E+000.0000000000E+00+
*       3.2782776806E+01               0
GRID*               3880               0-4.399761989E+000.0000000000E+00+
*       3.1084907581E+01               0
GRID*               3881               0-5.375791859E+000.0000000000E+00+
*       2.9368583430E+01               0
GRID*               3882               0-6.352964496E+000.0000000000E+00+
*       2.7646813996E+01               0
GRID*               3883               0-7.325498750E+000.0000000000E+00+
*       2.5927276945E+01               0
GRID*               3884               0-8.289043944E+000.0000000000E+00+
*       2.4215294202E+01               0
GRID*               3885               0-9.243149026E+000.0000000000E+00+
*       2.2511525231E+01               0
GRID*               3886               0-1.019277125E+010.0000000000E+00+
*       2.0806214162E+01               0
GRID*               3887               0-1.114575077E+010.0000000000E+00+
*       1.9079827835E+01               0
GRID*               3888               0-1.210995706E+010.0000000000E+00+
*       1.7318854052E+01               0
GRID*               3889               0-1.308882082E+010.0000000000E+00+
*       1.5534611700E+01               0
GRID*               3890               0-1.407636544E+010.0000000000E+00+
*       1.3756772846E+01               0
GRID*               3891               0-1.506414087E+010.0000000000E+00+
*       1.2006140383E+01               0
GRID*               3892               0-1.605124990E+010.0000000000E+00+
*       1.0282070077E+01               0
GRID*               3893               0-1.704018013E+010.0000000000E+00+
*       8.5720914217E+00               0
GRID*               3894               0-1.802961548E+010.0000000000E+00+
*       6.8662628540E+00               0
GRID*               3895               0-1.901721444E+010.0000000000E+00+
*       5.1611959408E+00               0
GRID*               3896               0-2.000362027E+010.0000000000E+00+
*       3.4534521560E+00               0
GRID*               3897               0-2.099403523E+010.0000000000E+00+
*       1.7369277323E+00               0
GRID*               3898               0-9.297906806E+000.0000000000E+00+
*       4.5839592695E+01               0
GRID*               3899               0-8.079190632E+000.0000000000E+00+
*       4.4330113842E+01               0
GRID*               3900               0-6.926470240E+000.0000000000E+00+
*       4.2844510096E+01               0
GRID*               3901               0-5.983428027E+000.0000000000E+00+
*       4.1282008424E+01               0
GRID*               3902               0-5.161775190E+000.0000000000E+00+
*       3.9570308610E+01               0
GRID*               3903               0-4.295016744E+000.0000000000E+00+
*       3.7817310468E+01               0
GRID*               3904               0-3.397258652E+000.0000000000E+00+
*       3.6099196541E+01               0
GRID*               3905               0-4.400024166E+000.0000000000E+00+
*       3.4444390024E+01               0
GRID*               3906               0-5.391962125E+000.0000000000E+00+
*       3.2748562647E+01               0
GRID*               3907               0-6.377848370E+000.0000000000E+00+
*       3.1025766610E+01               0
GRID*               3908               0-7.357168222E+000.0000000000E+00+
*       2.9291414712E+01               0
GRID*               3909               0-8.327992404E+000.0000000000E+00+
*       2.7556864053E+01               0
GRID*               3910               0-9.287521184E+000.0000000000E+00+
*       2.5831847051E+01               0
GRID*               3911               0-1.023611658E+010.0000000000E+00+
*       2.4125428915E+01               0
GRID*               3912               0-1.118576081E+010.0000000000E+00+
*       2.2437061804E+01               0
GRID*               3913               0-1.215488912E+010.0000000000E+00+
*       2.0743914995E+01               0
GRID*               3914               0-1.314727470E+010.0000000000E+00+
*       1.9014043317E+01               0
GRID*               3915               0-1.414526430E+010.0000000000E+00+
*       1.7242974792E+01               0
GRID*               3916               0-1.513017300E+010.0000000000E+00+
*       1.5460260621E+01               0
GRID*               3917               0-1.609755207E+010.0000000000E+00+
*       1.3700595111E+01               0
GRID*               3918               0-1.705881280E+010.0000000000E+00+
*       1.1979031472E+01               0
GRID*               3919               0-1.803076573E+010.0000000000E+00+
*       1.0282352623E+01               0
GRID*               3920               0-1.901461135E+010.0000000000E+00+
*       8.5872429552E+00               0
GRID*               3921               0-1.999908670E+010.0000000000E+00+
*       6.8888690095E+00               0
GRID*               3922               0-2.098456950E+010.0000000000E+00+
*       5.1911950578E+00               0
GRID*               3923               0-2.197098727E+010.0000000000E+00+
*       3.4846154003E+00               0
GRID*               3924               0-2.296814902E+010.0000000000E+00+
*       1.7653431932E+00               0
GRID*               3925               0-1.129015138E+010.0000000000E+00+
*       4.5499453520E+01               0
GRID*               3926               0-1.005555629E+010.0000000000E+00+
*       4.3960142408E+01               0
GRID*               3927               0-8.779505321E+000.0000000000E+00+
*       4.2458677640E+01               0
GRID*               3928               0-7.579731361E+000.0000000000E+00+
*       4.1316723212E+01               0
GRID*               3929               0-7.069117929E+000.0000000000E+00+
*       3.9719404831E+01               0
GRID*               3930               0-6.246867265E+000.0000000000E+00+
*       3.7914760787E+01               0
GRID*               3931               0-5.339494910E+000.0000000000E+00+
*       3.6151506128E+01               0
GRID*               3932               0-1.324540507E+010.0000000000E+00+
*       4.5253002072E+01               0
GRID*               3933               0-1.206888264E+010.0000000000E+00+
*       4.3643690522E+01               0
GRID*               3934               0-1.079178696E+010.0000000000E+00+
*       4.1994455181E+01               0
GRID*               3935               0-9.233492311E+000.0000000000E+00+
*       4.0213782304E+01               0
GRID*               3936               0-8.282688604E+000.0000000000E+00+
*       3.8037770586E+01               0
GRID*               3937               0-7.333446685E+000.0000000000E+00+
*       3.6191566785E+01               0
GRID*               3938               0-6.368992025E+000.0000000000E+00+
*       3.4442944932E+01               0
GRID*               3939               0-1.518643937E+010.0000000000E+00+
*       4.5107132747E+01               0
GRID*               3940               0-1.409009822E+010.0000000000E+00+
*       4.3437468439E+01               0
GRID*               3941               0-1.291430323E+010.0000000000E+00+
*       4.1714124700E+01               0
GRID*               3942               0-1.165026252E+010.0000000000E+00+
*       3.9935517929E+01               0
GRID*               3943               0-1.045009198E+010.0000000000E+00+
*       3.8057738268E+01               0
GRID*               3944               0-9.390718091E+000.0000000000E+00+
*       3.6193524375E+01               0
GRID*               3945               0-8.377618834E+000.0000000000E+00+
*       3.4419799763E+01               0
GRID*               3946               0-7.377180311E+000.0000000000E+00+
*       3.2703575295E+01               0
GRID*               3947               0-1.940296774E+010.0000000000E+00+
*       3.5313662031E+01               0
GRID*               3948               0-1.755126982E+010.0000000000E+00+
*       3.5596415011E+01               0
GRID*               3949               0-1.559636985E+010.0000000000E+00+
*       3.5810754976E+01               0
GRID*               3950               0-1.356499563E+010.0000000000E+00+
*       3.5986937197E+01               0
GRID*               3951               0-1.148540043E+010.0000000000E+00+
*       3.6123710926E+01               0
GRID*               3952               0-1.504208946E+010.0000000000E+00+
*       4.1542950273E+01               0
GRID*               3953               0-1.599135986E+010.0000000000E+00+
*       3.9523735201E+01               0
GRID*               3954               0-1.680606691E+010.0000000000E+00+
*       3.7506469862E+01               0
GRID*               3955               0-1.262084110E+010.0000000000E+00+
*       3.7924592323E+01               0
GRID*               3956               0-1.473524706E+010.0000000000E+00+
*       3.7743661997E+01               0
GRID*               3957               0-1.382538535E+010.0000000000E+00+
*       3.9731365272E+01               0
GRID*               3958               0-1.815574807E+010.0000000000E+00+
*       3.9201703024E+01               0
GRID*               3959               0-1.879973167E+010.0000000000E+00+
*       3.7209704547E+01               0
GRID*               3960               0-1.740829392E+010.0000000000E+00+
*       4.1498357540E+01               0
GRID*               3961               0-1.704017440E+010.0000000000E+00+
*       4.4975489936E+01               0
GRID*               3962               0-1.606584626E+010.0000000000E+00+
*       4.3353287181E+01               0
GRID*               3963               0-1.769357844E+010.0000000000E+00+
*       4.3455729556E+01               0
GRID*               3964               0-1.447720388E+010.0000000000E+00+
*       3.4119747247E+01               0
GRID*               3965               0-1.340499976E+010.0000000000E+00+
*       3.2421525614E+01               0
GRID*               3966               0-1.235142997E+010.0000000000E+00+
*       3.0736314857E+01               0
GRID*               3967               0-1.131224191E+010.0000000000E+00+
*       2.9080674452E+01               0
GRID*               3968               0-1.029089345E+010.0000000000E+00+
*       2.7450635111E+01               0
GRID*               3969               0-8.365933402E+000.0000000000E+00+
*       3.0950569607E+01               0
GRID*               3970               0-9.335654422E+000.0000000000E+00+
*       2.9196580349E+01               0
GRID*               3971               0-9.382498630E+000.0000000000E+00+
*       3.2636163888E+01               0
GRID*               3972               0-1.035723235E+010.0000000000E+00+
*       3.0855725872E+01               0
GRID*               3973               0-1.245860814E+010.0000000000E+00+
*       3.4256665897E+01               0
GRID*               3974               0-1.139505474E+010.0000000000E+00+
*       3.2543139723E+01               0
GRID*               3975               0-1.041431195E+010.0000000000E+00+
*       3.4360722516E+01               0
GRID*               3976               0-1.122446943E+010.0000000000E+00+
*       2.5727613985E+01               0
GRID*               3977               0-1.214680300E+010.0000000000E+00+
*       2.4047193621E+01               0
GRID*               3978               0-1.310181197E+010.0000000000E+00+
*       2.2405096768E+01               0
GRID*               3979               0-1.412633155E+010.0000000000E+00+
*       2.0735503191E+01               0
GRID*               3980               0-1.517730898E+010.0000000000E+00+
*       1.8978890108E+01               0
GRID*               3981               0-1.618845230E+010.0000000000E+00+
*       1.7169195979E+01               0
GRID*               3982               0-1.714390134E+010.0000000000E+00+
*       1.5374372197E+01               0
GRID*               3983               0-1.806080980E+010.0000000000E+00+
*       1.3639323169E+01               0
GRID*               3984               0-1.899240875E+010.0000000000E+00+
*       1.1970019882E+01               0
GRID*               3985               0-1.997281128E+010.0000000000E+00+
*       1.0309559545E+01               0
GRID*               3986               0-2.096240016E+010.0000000000E+00+
*       8.6166304092E+00               0
GRID*               3987               0-2.193547553E+010.0000000000E+00+
*       6.9263182957E+00               0
GRID*               3988               0-2.294109623E+010.0000000000E+00+
*       5.2455767997E+00               0
GRID*               3989               0-2.390680833E+010.0000000000E+00+
*       3.5261577183E+00               0
GRID*               3990               0-2.492618608E+010.0000000000E+00+
*       1.8401614398E+00               0
GRID*               3991               0-1.643551349E+010.0000000000E+00+
*       3.3979849034E+01               0
GRID*               3992               0-1.538940908E+010.0000000000E+00+
*       3.2307368085E+01               0
GRID*               3993               0-1.433672215E+010.0000000000E+00+
*       3.0605999524E+01               0
GRID*               3994               0-1.327271432E+010.0000000000E+00+
*       2.8941244018E+01               0
GRID*               3995               0-1.223003272E+010.0000000000E+00+
*       2.7324987133E+01               0
GRID*               3996               0-1.826401467E+010.0000000000E+00+
*       3.3832254330E+01               0
GRID*               3997               0-1.731471087E+010.0000000000E+00+
*       3.2250146760E+01               0
GRID*               3998               0-1.634834329E+010.0000000000E+00+
*       3.0487487935E+01               0
GRID*               3999               0-1.523421565E+010.0000000000E+00+
*       2.8772258733E+01               0
GRID*               4000               0-1.414102600E+010.0000000000E+00+
*       2.7164529451E+01               0
GRID*               4001               0-1.311176270E+010.0000000000E+00+
*       2.5614670678E+01               0
GRID*               4002               0-2.126383300E+010.0000000000E+00+
*       2.7663775346E+01               0
GRID*               4003               0-1.930050078E+010.0000000000E+00+
*       2.8167078669E+01               0
GRID*               4004               0-1.724764806E+010.0000000000E+00+
*       2.8552591261E+01               0
GRID*               4005               0-2.072703922E+010.0000000000E+00+
*       2.9683356423E+01               0
GRID*               4006               0-1.859679954E+010.0000000000E+00+
*       3.0455274155E+01               0
GRID*               4007               0-2.034445690E+010.0000000000E+00+
*       3.1685926556E+01               0
GRID*               4008               0-1.890049366E+010.0000000000E+00+
*       3.2377272987E+01               0
GRID*               4009               0-1.995582909E+010.0000000000E+00+
*       3.3519205652E+01               0
GRID*               4010               0-1.604098540E+010.0000000000E+00+
*       2.6929954457E+01               0
GRID*               4011               0-1.492059436E+010.0000000000E+00+
*       2.5459688879E+01               0
GRID*               4012               0-1.397113930E+010.0000000000E+00+
*       2.4000730935E+01               0
GRID*               4013               0-1.798111460E+010.0000000000E+00+
*       2.6588999367E+01               0
GRID*               4014               0-1.670690534E+010.0000000000E+00+
*       2.5105120579E+01               0
GRID*               4015               0-1.552354802E+010.0000000000E+00+
*       2.4008294906E+01               0
GRID*               4016               0-1.498986826E+010.0000000000E+00+
*       2.2479183615E+01               0
GRID*               4017               0-2.234319248E+010.0000000000E+00+
*       2.3884734648E+01               0
GRID*               4018               0-2.057808014E+010.0000000000E+00+
*       2.4314011776E+01               0
GRID*               4019               0-1.864382010E+010.0000000000E+00+
*       2.4645956385E+01               0
GRID*               4020               0-2.181454401E+010.0000000000E+00+
*       2.5733628789E+01               0
GRID*               4021               0-1.993220875E+010.0000000000E+00+
*       2.6183914720E+01               0
GRID*               4022               0-1.713279284E+010.0000000000E+00+
*       2.2938460097E+01               0
GRID*               4023               0-1.617426253E+010.0000000000E+00+
*       2.0805979222E+01               0
GRID*               4024               0-2.271722356E+010.0000000000E+00+
*       2.2019516841E+01               0
GRID*               4025               0-2.120223764E+010.0000000000E+00+
*       2.2772721183E+01               0
GRID*               4026               0-1.946720960E+010.0000000000E+00+
*       2.2726648815E+01               0
GRID*               4027               0-1.838568214E+010.0000000000E+00+
*       2.0823718047E+01               0
GRID*               4028               0-1.726586078E+010.0000000000E+00+
*       1.8933987920E+01               0
GRID*               4029               0-2.309715403E+010.0000000000E+00+
*       1.9991805147E+01               0
GRID*               4030               0-2.084455734E+010.0000000000E+00+
*       2.0794475183E+01               0
GRID*               4031               0-1.943156688E+010.0000000000E+00+
*       1.8803945931E+01               0
GRID*               4032               0-1.823610878E+010.0000000000E+00+
*       1.7055381222E+01               0
GRID*               4033               0-2.363127444E+010.0000000000E+00+
*       1.7961336981E+01               0
GRID*               4034               0-2.159119650E+010.0000000000E+00+
*       1.8462366930E+01               0
GRID*               4035               0-2.026391939E+010.0000000000E+00+
*       1.6838383823E+01               0
GRID*               4036               0-1.910154339E+010.0000000000E+00+
*       1.5248928299E+01               0
GRID*               4037               0-2.415070118E+010.0000000000E+00+
*       1.6004146792E+01               0
GRID*               4038               0-2.222520475E+010.0000000000E+00+
*       1.6476547886E+01               0
GRID*               4039               0-2.462277323E+010.0000000000E+00+
*       1.4025453965E+01               0
GRID*               4040               0-2.273571891E+010.0000000000E+00+
*       1.4595015560E+01               0
GRID*               4041               0-2.095512402E+010.0000000000E+00+
*       1.5039709831E+01               0
GRID*               4042               0-2.296851441E+010.0000000000E+00+
*       1.2410214010E+01               0
GRID*               4043               0-2.192678279E+010.0000000000E+00+
*       1.0376809897E+01               0
GRID*               4044               0-2.086360572E+010.0000000000E+00+
*       1.2030272524E+01               0
GRID*               4045               0-2.146941074E+010.0000000000E+00+
*       1.3543210605E+01               0
GRID*               4046               0-1.990852506E+010.0000000000E+00+
*       1.3579352359E+01               0
GRID*               4047               0-2.287683948E+010.0000000000E+00+
*       8.6324019287E+00               0
GRID*               4048               0-2.379948096E+010.0000000000E+00+
*       6.9932017027E+00               0
GRID*               4049               0-2.504782088E+010.0000000000E+00+
*       5.3580757012E+00               0
GRID*               4050               0-2.560055166E+010.0000000000E+00+
*       3.5089520193E+00               0
GRID*               4051               0-2.715925414E+010.0000000000E+00+
*       2.2443010440E+00               0
GRID*               4052               0-2.516413927E+010.0000000000E+00+
*       1.2008267123E+01               0
GRID*               4053               0-2.390840079E+010.0000000000E+00+
*       1.0334856042E+01               0
GRID*               4054               0-2.578900388E+010.0000000000E+00+
*       1.0085991225E+01               0
GRID*               4055               0-2.468072905E+010.0000000000E+00+
*       8.5793760122E+00               0
GRID*               4056               0-2.701880121E+010.0000000000E+00+
*       4.5691912297E+00               0
GRID*               4057               0-2.635215976E+010.0000000000E+00+
*       8.2974738266E+00               0
GRID*               4058               0-2.672786534E+010.0000000000E+00+
*       6.5036403843E+00               0
GRID*               4059               0-2.532538274E+010.0000000000E+00+
*       7.1686855930E+00               0
GRID*               5206               02.3897548662E+011.6667360091E+00+
*       2.4144286511E+01               0
GRID*               5207               02.3679601047E+013.3334346186E+00+
*       2.5006594032E+01               0
GRID*               5208               02.3461658570E+015.0000845611E+00+
*       2.5868881227E+01               0
GRID*               5209               02.3243720348E+016.6666930928E+00+
*       2.6731151587E+01               0
GRID*               5210               02.3025783509E+018.3332882606E+00+
*       2.7593416476E+01               0
GRID*               5211               02.2807843703E+019.9999074243E+00+
*       2.8455693105E+01               0
GRID*               5212               02.2589899674E+011.1666570045E+01+
*       2.9317986437E+01               0
GRID*               5213               02.2371951416E+011.3333274546E+01+
*       3.0180296500E+01               0
GRID*               5214               01.9429084180E+011.3337294649E+01+
*       4.1823720761E+01               0
GRID*               5215               01.9647152143E+011.1671420990E+01+
*       4.0960937086E+01               0
GRID*               5216               01.9865416367E+011.0004656204E+01+
*       4.0097376907E+01               0
GRID*               5217               02.0083600769E+018.3371610587E+00+
*       3.9234132542E+01               0
GRID*               5218               02.0301585220E+016.6691358497E+00+
*       3.8371679282E+01               0
GRID*               5219               02.0519471343E+015.0011446853E+00+
*       3.7509615055E+01               0
GRID*               5220               02.0737377300E+013.3337807153E+00+
*       3.6647472355E+01               0
GRID*               5221               02.0955306642E+011.6668051449E+00+
*       3.5785237134E+01               0
GRID*               5222               02.2971283978E+015.0000813369E+00+
*       2.7809043310E+01               0
GRID*               5223               02.2480908624E+015.0000826037E+00+
*       2.9749208411E+01               0
GRID*               5224               02.1990533906E+015.0000848082E+00+
*       3.1689370993E+01               0
GRID*               5225               02.1500161052E+015.0001079603E+00+
*       3.3629526205E+01               0
GRID*               5226               02.1009805515E+015.0003920616E+00+
*       3.5569612897E+01               0
GRID*               5227               02.2426425224E+011.6667251493E+00+
*       2.9964771434E+01               0
GRID*               5228               02.2208478726E+013.3334164076E+00+
*       3.0827074534E+01               0
GRID*               5229               02.1445677380E+011.6667434407E+00+
*       3.3845090301E+01               0
GRID*               5230               02.1227740739E+013.3335565589E+00+
*       3.4707354399E+01               0
GRID*               5231               02.1718107762E+013.3334429469E+00+
*       3.2767222263E+01               0
GRID*               5232               02.1936053064E+011.6667216844E+00+
*       3.1904923894E+01               0
GRID*               5233               02.3189228068E+013.3334185047E+00+
*       2.6946749739E+01               0
GRID*               5234               02.3407175736E+011.6667204011E+00+
*       2.6084442005E+01               0
GRID*               5235               02.2916801268E+011.6667158446E+00+
*       2.8024603604E+01               0
GRID*               5236               02.2698854629E+013.3334053185E+00+
*       2.8886907260E+01               0
GRID*               5237               02.0791888048E+016.6674937278E+00+
*       3.6431801134E+01               0
GRID*               5238               02.0573951274E+018.3347389821E+00+
*       3.7294065760E+01               0
GRID*               5239               02.0355954418E+011.0001887220E+01+
*       3.8156568105E+01               0
GRID*               5240               02.0137891519E+011.1668785554E+01+
*       3.9019331747E+01               0
GRID*               5241               01.9919856436E+011.3335255075E+01+
*       3.9881985331E+01               0
GRID*               5242               02.0628369573E+011.1667430915E+01+
*       3.7078760323E+01               0
GRID*               5243               02.1118769790E+011.1666818185E+01+
*       3.5138496857E+01               0
GRID*               5244               02.1609148978E+011.1666643398E+01+
*       3.3198316590E+01               0
GRID*               5245               02.2099523423E+011.1666599677E+01+
*       3.1258155088E+01               0
GRID*               5246               02.1881575045E+011.3333298868E+01+
*       3.2120465624E+01               0
GRID*               5247               02.1391197841E+011.3333358012E+01+
*       3.4060638045E+01               0
GRID*               5248               02.0410384874E+011.3334180622E+01+
*       3.7941214562E+01               0
GRID*               5249               02.0900808566E+011.3333652003E+01+
*       3.6000858217E+01               0
GRID*               5250               02.2317466087E+019.9999372039E+00+
*       3.0395867153E+01               0
GRID*               5251               02.2535405812E+018.3333104424E+00+
*       2.9533590846E+01               0
GRID*               5252               02.2753345269E+016.6666941078E+00+
*       2.8671315596E+01               0
GRID*               5253               02.1282235013E+016.6669346801E+00+
*       3.4491748359E+01               0
GRID*               5254               02.1064302915E+018.3338173770E+00+
*       3.5353994485E+01               0
GRID*               5255               02.0846349226E+011.0000826968E+01+
*       3.6216326042E+01               0
GRID*               5256               02.1336722349E+011.0000254213E+01+
*       3.4276169772E+01               0
GRID*               5257               02.1827092482E+011.0000026853E+01+
*       3.2336025333E+01               0
GRID*               5258               02.2045031105E+018.3333457264E+00+
*       3.1473753383E+01               0
GRID*               5259               02.2262970080E+016.6667056015E+00+
*       3.0611480045E+01               0
GRID*               5260               02.1772599187E+016.6667625390E+00+
*       3.2551627493E+01               0
GRID*               5261               02.1554665713E+018.3335387083E+00+
*       3.3413879067E+01               0
GRID*               5262               01.7947449542E+011.3389775304E+01+
*       4.7685793087E+01               0
GRID*               5263               01.8165853227E+011.1740670055E+01+
*       4.6821681136E+01               0
GRID*               5264               01.8392132099E+011.0049821709E+01+
*       4.5926411089E+01               0
GRID*               5265               01.8619701052E+018.3752825514E+00+
*       4.5026036852E+01               0
GRID*               5266               01.8838978742E+016.7120690246E+00+
*       4.4158466908E+01               0
GRID*               5267               01.9053343134E+015.0356144339E+00+
*       4.3310336378E+01               0
GRID*               5268               01.9268637321E+013.3537489567E+00+
*       4.2458527121E+01               0
GRID*               5269               01.9485032470E+011.6741395040E+00+
*       4.1602361920E+01               0
GRID*               5270               01.8663394339E+011.1700468716E+01+
*       4.4853164807E+01               0
GRID*               5271               01.9155917282E+011.1682027559E+01+
*       4.2904502806E+01               0
GRID*               5272               01.8937642017E+011.3347312401E+01+
*       4.3768106667E+01               0
GRID*               5273               01.8444547842E+011.3363228163E+01+
*       4.5719028738E+01               0
GRID*               5274               01.8885211262E+011.0029060335E+01+
*       4.3975548411E+01               0
GRID*               5275               01.9375238098E+011.0014571227E+01+
*       4.2036762231E+01               0
GRID*               5276               02.0464952784E+011.6670458348E+00+
*       3.7725317182E+01               0
GRID*               5277               01.9974783747E+011.6689885127E+00+
*       3.9664665982E+01               0
GRID*               5278               01.9105909354E+018.3599125712E+00+
*       4.3102358660E+01               0
GRID*               5279               01.9594044751E+018.3462762367E+00+
*       4.1171055938E+01               0
GRID*               5280               01.9324010399E+016.6903799268E+00+
*       4.2239444100E+01               0
GRID*               5281               01.9812073546E+016.6767564027E+00+
*       4.0308427232E+01               0
GRID*               5282               02.0029517672E+015.0054653680E+00+
*       3.9448111767E+01               0
GRID*               5283               02.0247191946E+013.3357294957E+00+
*       3.8586885719E+01               0
GRID*               5284               01.9757566333E+013.3422785473E+00+
*       4.0524084470E+01               0
GRID*               5285               01.9540990691E+015.0180373614E+00+
*       4.1380963789E+01               0
GRID*               5286               01.7441449607E+011.3398386475E+01+
*       4.9687776661E+01               0
GRID*               5287               01.7666468473E+011.1831896056E+01+
*       4.8797491819E+01               0
GRID*               5288               01.7886886603E+011.0090826913E+01+
*       4.7925409736E+01               0
GRID*               5289               01.8138186368E+018.3650160816E+00+
*       4.6931144784E+01               0
GRID*               5290               01.8368662736E+016.7531202873E+00+
*       4.6019267385E+01               0
GRID*               5291               01.8571423304E+015.0841023354E+00+
*       4.5217047267E+01               0
GRID*               5292               01.8781383097E+013.3817716374E+00+
*       4.4386343489E+01               0
GRID*               5293               01.8995656040E+011.6861288933E+00+
*       4.3538574778E+01               0
GRID*               5294               01.8289752937E+013.4406168445E+00+
*       4.6331473201E+01               0
GRID*               5295               01.8004333932E+011.7453428086E+00+
*       4.7460730581E+01               0
GRID*               5296               01.8504267514E+011.7096887701E+00+
*       4.5482748469E+01               0
GRID*               5297               01.8089230221E+015.1985317837E+00+
*       4.7124839282E+01               0
GRID*               5298               01.7775342940E+013.5518644586E+00+
*       4.8366731102E+01               0
GRID*               5299               01.7472868700E+011.7929166082E+00+
*       4.9563467341E+01               0
GRID*               5300               01.7550338273E+015.5778266222E+00+
*       4.9256959765E+01               0
GRID*               5301               01.7129546664E+016.7810303454E+00+
*       5.0921817467E+01               0
GRID*               5302               01.7083244551E+015.0670422052E+00+
*       5.1105011303E+01               0
GRID*               5303               01.7234552097E+013.5997344022E+00+
*       5.0506364545E+01               0
GRID*               5304               01.7584148350E+018.1252537357E+00+
*       4.9123190545E+01               0
GRID*               5305               01.7954261957E+016.8041323326E+00+
*       4.7658839839E+01               0
GRID*               5306               01.7068683036E+018.8465710094E+00+
*       5.1162623788E+01               0
GRID*               5307               01.7367145707E+011.0354781490E+01+
*       4.9981759282E+01               0
GRID*               5308               01.7199997460E+011.1988702802E+01+
*       5.0643079611E+01               0
GRID*               5309               02.6839887442E+011.6653077367E+00+
*       1.2502953076E+01               0
GRID*               5310               02.6621884787E+013.3319890927E+00+
*       1.3365478358E+01               0
GRID*               5311               02.6403893933E+014.9989314055E+00+
*       1.4227956957E+01               0
GRID*               5312               02.6185935416E+016.6658579792E+00+
*       1.5090307611E+01               0
GRID*               5313               02.5968010347E+018.3328974869E+00+
*       1.5952525928E+01               0
GRID*               5314               02.5750083085E+019.9997692786E+00+
*       1.6814752920E+01               0
GRID*               5315               02.5532146010E+011.1666528512E+01+
*       1.7677018736E+01               0
GRID*               5316               02.5314200368E+011.3333263575E+01+
*       1.8539318450E+01               0
GRID*               5317               02.3298218568E+019.9999100348E+00+
*       2.6515529938E+01               0
GRID*               5318               02.3788593775E+019.9999090573E+00+
*       2.4575365421E+01               0
GRID*               5319               02.4278968122E+019.9999131768E+00+
*       2.2635204303E+01               0
GRID*               5320               02.4769341912E+019.9999185213E+00+
*       2.0695045392E+01               0
GRID*               5321               02.5259712969E+019.9998892198E+00+
*       1.8754897293E+01               0
GRID*               5322               02.3843076900E+011.3333268003E+01+
*       2.4359803489E+01               0
GRID*               5323               02.4061023502E+011.1666578384E+01+
*       2.3497499976E+01               0
GRID*               5324               02.4823825624E+011.3333274312E+01+
*       2.0479481137E+01               0
GRID*               5325               02.5041770542E+011.1666571667E+01+
*       1.9617184286E+01               0
GRID*               5326               02.4551396600E+011.1666587965E+01+
*       2.1557343799E+01               0
GRID*               5327               02.4333449503E+011.3333285312E+01+
*       2.2419649269E+01               0
GRID*               5328               02.3352701477E+011.3333272956E+01+
*       2.6299968860E+01               0
GRID*               5329               02.3570648141E+011.1666582890E+01+
*       2.5437665103E+01               0
GRID*               5330               02.3080272871E+011.1666585946E+01+
*       2.7377829872E+01               0
GRID*               5331               02.2862325081E+011.3333284777E+01+
*       2.8240138083E+01               0
GRID*               5332               02.5477646765E+018.3331948124E+00+
*       1.7892644450E+01               0
GRID*               5333               02.5695578937E+016.6664378519E+00+
*       1.7030398027E+01               0
GRID*               5334               02.5913519544E+014.9996484075E+00+
*       1.6168118233E+01               0
GRID*               5335               02.6131476862E+013.3328471338E+00+
*       1.5305772317E+01               0
GRID*               5336               02.6349444885E+011.6661047688E+00+
*       1.4443384054E+01               0
GRID*               5337               02.5641098678E+013.3332241784E+00+
*       1.7245948611E+01               0
GRID*               5338               02.5150725011E+013.3333767242E+00+
*       1.9186107036E+01               0
GRID*               5339               02.4660351398E+013.3334122841E+00+
*       2.1126265244E+01               0
GRID*               5340               02.4169977518E+013.3334166623E+00+
*       2.3066424513E+01               0
GRID*               5341               02.4387925649E+011.6667165754E+00+
*       2.2204114950E+01               0
GRID*               5342               02.4878300543E+011.6667023002E+00+
*       2.0263951672E+01               0
GRID*               5343               02.5859052752E+011.6664669310E+00+
*       1.6383615539E+01               0
GRID*               5344               02.5368675193E+011.6666212053E+00+
*       1.8323789359E+01               0
GRID*               5345               02.3952035461E+015.0000670711E+00+
*       2.3928710045E+01               0
GRID*               5346               02.3734096525E+016.6666833875E+00+
*       2.4790983229E+01               0
GRID*               5347               02.3516157594E+018.3332949111E+00+
*       2.5653256398E+01               0
GRID*               5348               02.4987277548E+018.3332795706E+00+
*       1.9832785266E+01               0
GRID*               5349               02.5205212795E+016.6666189613E+00+
*       1.8970526677E+01               0
GRID*               5350               02.5423151505E+014.9998857531E+00+
*       1.8108254384E+01               0
GRID*               5351               02.4932781752E+015.0000059555E+00+
*       2.0048397320E+01               0
GRID*               5352               02.4442410150E+015.0000444273E+00+
*       2.1988547576E+01               0
GRID*               5353               02.4224471394E+016.6666767965E+00+
*       2.2850820050E+01               0
GRID*               5354               02.4006532391E+018.3332954308E+00+
*       2.3713093501E+01               0
GRID*               5355               02.4496905714E+018.3332957301E+00+
*       2.1772936439E+01               0
GRID*               5356               02.4714842905E+016.6666503045E+00+
*       2.0910670159E+01               0
GRID*               5357               02.7275292251E+011.3329238695E+01+
*       1.0780278386E+01               0
GRID*               5358               02.7491935648E+011.1649284142E+01+
*       9.9231309935E+00               0
GRID*               5359               02.7707151063E+019.9645342343E+00+
*       9.0716334018E+00               0
GRID*               5360               02.7920748956E+018.2883190791E+00+
*       8.2265355162E+00               0
GRID*               5361               02.8139077527E+016.6261406518E+00+
*       7.3627207520E+00               0
GRID*               5362               02.8366874762E+014.9504799805E+00+
*       6.4614433157E+00               0
GRID*               5363               02.8592902912E+013.2587964604E+00+
*       5.5671652491E+00               0
GRID*               5364               02.8811723722E+011.6099897490E+00+
*       4.7014029446E+00               0
GRID*               5365               02.9318285478E+011.6013424438E+00+
*       2.6971965359E+00               0
GRID*               5366               02.9092912361E+013.1679945702E+00+
*       3.5888829674E+00               0
GRID*               5367               02.8872322094E+014.9095290888E+00+
*       4.4616461080E+00               0
GRID*               5368               02.8621077729E+016.6357231080E+00+
*       5.4556918728E+00               0
GRID*               5369               02.8390821083E+018.2478395390E+00+
*       6.3666999389E+00               0
GRID*               5370               02.8188469257E+019.9167631626E+00+
*       7.1673028754E+00               0
GRID*               5371               02.7978761737E+011.1619426446E+01+
*       7.9970085389E+00               0
GRID*               5372               02.7764477282E+011.3315285426E+01+
*       8.8448227998E+00               0
GRID*               5373               02.8470153111E+011.1560134001E+01+
*       6.0528235817E+00               0
GRID*               5374               02.8755553995E+011.3255032809E+01+
*       4.9236378968E+00               0
GRID*               5375               02.8255704021E+011.3290920004E+01+
*       6.9012892162E+00               0
GRID*               5376               02.8670482749E+019.8022262897E+00+
*       5.2602214126E+00               0
GRID*               5377               02.8984483529E+011.1448579468E+01+
*       4.0178805324E+00               0
GRID*               5378               02.9286992183E+011.3207256103E+01+
*       2.8210081352E+00               0
GRID*               5379               02.9209377316E+019.4226340427E+00+
*       3.1280905632E+00               0
GRID*               5380               02.9630236131E+018.2192053038E+00+
*       1.4629669643E+00               0
GRID*               5381               02.9676584281E+019.9331355656E+00+
*       1.2795909851E+00               0
GRID*               5382               02.9525278066E+011.1400481332E+01+
*       1.8782324762E+00               0
GRID*               5383               02.9175416998E+016.8751455008E+00+
*       3.2624542155E+00               0
GRID*               5384               02.8805279916E+018.1965537443E+00+
*       4.7268977978E+00               0
GRID*               5385               02.9691106522E+016.1535055959E+00+
*       1.2221338858E+00               0
GRID*               5386               02.9392455162E+014.6452719712E+00+
*       2.4037449392E+00               0
GRID*               5387               02.9559694328E+013.0111972276E+00+
*       1.7420648883E+00               0
GRID*               5388               02.7874114078E+014.9731676111E+00+
*       8.4110459366E+00               0
GRID*               5389               02.7384238744E+014.9878158275E+00+
*       1.0349232698E+01               0
GRID*               5390               02.6894137721E+014.9950844080E+00+
*       1.2288312402E+01               0
GRID*               5391               02.7822111241E+011.6537262321E+00+
*       8.6167946272E+00               0
GRID*               5392               02.7603233519E+013.3177922084E+00+
*       9.4827821013E+00               0
GRID*               5393               02.7112287757E+013.3265737848E+00+
*       1.1425204007E+01               0
GRID*               5394               02.7330549461E+011.6604074417E+00+
*       1.0561653797E+01               0
GRID*               5395               02.8095554246E+013.2978737081E+00+
*       7.5349201669E+00               0
GRID*               5396               02.8314816975E+011.6365719602E+00+
*       6.6674094158E+00               0
GRID*               5397               02.5804573471E+011.3333250152E+01+
*       1.6599162258E+01               0
GRID*               5398               02.6294937470E+011.3333134897E+01+
*       1.4659042089E+01               0
GRID*               5399               02.6785204283E+011.3332042562E+01+
*       1.2719306437E+01               0
GRID*               5400               02.7653587910E+016.6415885275E+00+
*       9.2835554694E+00               0
GRID*               5401               02.7165651997E+016.6549292409E+00+
*       1.1214068935E+01               0
GRID*               5402               02.6676028657E+016.6621908952E+00+
*       1.3151258694E+01               0
GRID*               5403               02.6458224722E+018.3308655797E+00+
*       1.4012997742E+01               0
GRID*               5404               02.6240389402E+019.9989639611E+00+
*       1.4874860969E+01               0
GRID*               5405               02.6022493479E+011.1666270077E+01+
*       1.5736963967E+01               0
GRID*               5406               02.7435880687E+018.3105849329E+00+
*       1.0144911879E+01               0
GRID*               5407               02.6947756105E+018.3239597869E+00+
*       1.2076171811E+01               0
GRID*               5408               02.6730397978E+019.9954290301E+00+
*       1.2936147027E+01               0
GRID*               5409               02.6512736271E+011.1664987007E+01+
*       1.3797323351E+01               0
GRID*               5410               02.7002574400E+011.1659623363E+01+
*       1.1859283784E+01               0
GRID*               5411               02.7219139565E+019.9831192293E+00+
*       1.1002445919E+01               0
GRID*               3100               0-2.384307707E+011.6667323798E+00+
*       2.4359802820E+01               0
GRID*               3101               0-2.406102535E+013.3334357898E+00+
*       2.3497492660E+01               0
GRID*               3102               0-2.427896778E+015.0000852186E+00+
*       2.2635205640E+01               0
GRID*               3103               0-2.449690465E+016.6666865216E+00+
*       2.1772940629E+01               0
GRID*               3104               0-2.471484059E+018.3332784935E+00+
*       2.0910679322E+01               0
GRID*               3105               0-2.493277966E+019.9999022870E+00+
*       2.0048405582E+01               0
GRID*               3106               0-2.515072346E+011.1666588220E+01+
*       1.9186113190E+01               0
GRID*               3107               0-2.536867274E+011.3333320813E+01+
*       1.8323799054E+01               0
GRID*               3108               0-2.776515034E+011.6822752426E+00+
*       8.8421598442E+00               0
GRID*               3109               0-2.797984751E+013.3781526689E+00+
*       7.9927126714E+00               0
GRID*               3110               0-2.818878525E+015.0816052557E+00+
*       7.1660526411E+00               0
GRID*               3111               0-2.839016914E+016.7532890232E+00+
*       6.3692793398E+00               0
GRID*               3112               0-2.862036011E+018.3652664854E+00+
*       5.4585311073E+00               0
GRID*               3113               0-2.887073290E+011.0090388477E+01+
*       4.4679337312E+00               0
GRID*               3114               0-2.909198866E+011.1830580794E+01+
*       3.5925375977E+00               0
GRID*               3115               0-2.931747467E+011.3396604478E+01+
*       2.7004044984E+00               0
GRID*               3116               0-2.847046716E+013.4383873932E+00+
*       6.0515810415E+00               0
GRID*               3117               0-2.875572562E+011.7440919758E+00+
*       4.9229588801E+00               0
GRID*               3118               0-2.825604159E+011.7080094612E+00+
*       6.8999536353E+00               0
GRID*               3119               0-2.867013981E+015.1968379933E+00+
*       5.2615782633E+00               0
GRID*               3120               0-2.898432985E+013.5505442691E+00+
*       4.0184885538E+00               0
GRID*               3121               0-2.928694289E+011.7923451625E+00+
*       2.8212031665E+00               0
GRID*               3122               0-2.920885585E+015.5763189124E+00+
*       3.1301537234E+00               0
GRID*               3123               0-2.962990680E+016.7803663039E+00+
*       1.4642699686E+00               0
GRID*               3124               0-2.967639552E+015.0664454385E+00+
*       1.2803377972E+00               0
GRID*               3125               0-2.952513357E+013.5990356863E+00+
*       1.8788041920E+00               0
GRID*               3126               0-2.917464778E+018.1244563126E+00+
*       3.2654976252E+00               0
GRID*               3127               0-2.880468092E+016.8034285650E+00+
*       4.7292677362E+00               0
GRID*               3128               0-2.969086504E+018.8465658909E+00+
*       1.2230893086E+00               0
GRID*               3129               0-2.939158720E+011.0353872825E+01+
*       2.4071790179E+00               0
GRID*               3130               0-2.955925395E+011.1987877141E+01+
*       1.7438072560E+00               0
GRID*               3131               0-2.455139933E+013.3334298739E+00+
*       2.1557333005E+01               0
GRID*               3132               0-2.504177438E+013.3334304957E+00+
*       1.9617169089E+01               0
GRID*               3133               0-2.553214911E+013.3334284037E+00+
*       1.7677006480E+01               0
GRID*               3134               0-2.602252380E+013.3334275452E+00+
*       1.5736844005E+01               0
GRID*               3135               0-2.651288849E+013.3335228584E+00+
*       1.3796721080E+01               0
GRID*               3136               0-2.700294295E+013.3374395533E+00+
*       1.1857825614E+01               0
GRID*               3137               0-2.749190991E+013.3521947880E+00+
*       9.9232328215E+00               0
GRID*               3138               0-2.580457526E+011.6667218467E+00+
*       1.6599155184E+01               0
GRID*               3139               0-2.727510039E+011.6736756085E+00+
*       1.0781037472E+01               0
GRID*               3140               0-2.629493585E+011.6668550861E+00+
*       1.4659048495E+01               0
GRID*               3141               0-2.678513307E+011.6687985569E+00+
*       1.2719588192E+01               0
GRID*               3142               0-2.482382553E+011.6667228629E+00+
*       2.0479481493E+01               0
GRID*               3143               0-2.433345034E+011.6667191760E+00+
*       2.2419645976E+01               0
GRID*               3144               0-2.531419983E+011.6667161996E+00+
*       1.8539320595E+01               0
GRID*               3145               0-2.624046300E+015.0000914766E+00+
*       1.4874569760E+01               0
GRID*               3146               0-2.645834813E+016.6676321597E+00+
*       1.4012509478E+01               0
GRID*               3147               0-2.667611528E+018.3367795050E+00+
*       1.3150915983E+01               0
GRID*               3148               0-2.689386583E+011.0006268858E+01+
*       1.2289388138E+01               0
GRID*               3149               0-2.711196108E+011.1674507320E+01+
*       1.1426496513E+01               0
GRID*               3150               0-2.733030370E+011.3340017017E+01+
*       1.0562626143E+01               0
GRID*               3151               0-2.673064415E+015.0027584766E+00+
*       1.2935173064E+01               0
GRID*               3152               0-2.721982183E+015.0143283574E+00+
*       1.0999746559E+01               0
GRID*               3153               0-2.770625610E+015.0385015693E+00+
*       9.0751743105E+00               0
GRID*               3154               0-2.881060506E+011.3387156431E+01+
*       4.7058289116E+00               0
GRID*               3155               0-2.831427014E+011.3362521888E+01+
*       6.6695729497E+00               0
GRID*               3156               0-2.782137036E+011.3347988128E+01+
*       8.6197259127E+00               0
GRID*               3157               0-2.694797528E+016.6754773816E+00+
*       1.2075304647E+01               0
GRID*               3158               0-2.743553896E+016.6908165574E+00+
*       1.0146263926E+01               0
GRID*               3159               0-2.791871228E+016.7165729794E+00+
*       8.2345936194E+00               0
GRID*               3160               0-2.813677653E+018.3774167392E+00+
*       7.3718246380E+00               0
GRID*               3161               0-2.836382135E+011.0050378377E+01+
*       6.4735241217E+00               0
GRID*               3162               0-2.859068841E+011.1738434867E+01+
*       5.5759268974E+00               0
GRID*               3163               0-2.716494866E+018.3473284496E+00+
*       1.1216851666E+01               0
GRID*               3164               0-2.765201001E+018.3626923723E+00+
*       9.2897984054E+00               0
GRID*               3165               0-2.787204032E+011.0031676264E+01+
*       8.4192507374E+00               0
GRID*               3166               0-2.809387133E+011.1702706682E+01+
*       7.5415786041E+00               0
GRID*               3167               0-2.760205896E+011.1685496577E+01+
*       9.4874292301E+00               0
GRID*               3168               0-2.738272907E+011.0018188985E+01+
*       1.0355205727E+01               0
GRID*               3169               0-2.476934038E+015.0000698974E+00+
*       2.0695051453E+01               0
GRID*               3170               0-2.525971483E+015.0000697597E+00+
*       1.8754889926E+01               0
GRID*               3171               0-2.575008858E+015.0000745202E+00+
*       1.6814731173E+01               0
GRID*               3172               0-2.662172100E+011.1669844056E+01+
*       1.3366126398E+01               0
GRID*               3173               0-2.613143603E+011.1667632712E+01+
*       1.5305933866E+01               0
GRID*               3174               0-2.564108928E+011.1666881399E+01+
*       1.7245985792E+01               0
GRID*               3175               0-2.585904033E+011.3333663384E+01+
*       1.6383664672E+01               0
GRID*               3176               0-2.683974400E+011.3336479805E+01+
*       1.2503520617E+01               0
GRID*               3177               0-2.634938165E+011.3334651079E+01+
*       1.4443634239E+01               0
GRID*               3178               0-2.542315101E+011.0000062409E+01+
*       1.8108256331E+01               0
GRID*               3179               0-2.520521522E+018.3333414279E+00+
*       1.8970517085E+01               0
GRID*               3180               0-2.498727790E+016.6666933314E+00+
*       1.9832783867E+01               0
GRID*               3181               0-2.640374935E+011.0002564509E+01+
*       1.4228528989E+01               0
GRID*               3182               0-2.591348491E+011.0000785972E+01+
*       1.6168255254E+01               0
GRID*               3183               0-2.569557605E+018.3335891231E+00+
*       1.7030409440E+01               0
GRID*               3184               0-2.547764915E+016.6667511901E+00+
*       1.7892635029E+01               0
GRID*               3185               0-2.596800695E+016.6670207655E+00+
*       1.5952539361E+01               0
GRID*               3186               0-2.618586395E+018.3348326551E+00+
*       1.5090590365E+01               0
GRID*               3187               0-2.090082773E+011.6667369786E+00+
*       3.6000782412E+01               0
GRID*               3188               0-2.111877548E+013.3334362042E+00+
*       3.5138474333E+01               0
GRID*               3189               0-2.133671827E+015.0000882961E+00+
*       3.4276185908E+01               0
GRID*               3190               0-2.155465636E+016.6666960461E+00+
*       3.3413916059E+01               0
GRID*               3191               0-2.177259310E+018.3332872433E+00+
*       3.2551651569E+01               0
GRID*               3192               0-2.199053216E+019.9999013257E+00+
*       3.1689377910E+01               0
GRID*               3193               0-2.220847595E+011.1666561858E+01+
*       3.0827085507E+01               0
GRID*               3194               0-2.242642447E+011.3333268048E+01+
*       2.9964774401E+01               0
GRID*               3195               0-2.291679997E+011.3333273427E+01+
*       2.8024608757E+01               0
GRID*               3196               0-2.269885265E+011.1666577294E+01+
*       2.8886915102E+01               0
GRID*               3197               0-2.248091005E+019.9999243951E+00+
*       2.9749202778E+01               0
GRID*               3198               0-2.226297124E+018.3333097528E+00+
*       3.0611475436E+01               0
GRID*               3199               0-2.204503350E+016.6667088070E+00+
*       3.1473743896E+01               0
GRID*               3200               0-2.182709335E+015.0000878156E+00+
*       3.2336021901E+01               0
GRID*               3201               0-2.160914891E+013.3334237973E+00+
*       3.3198316852E+01               0
GRID*               3202               0-2.139120079E+011.6667217896E+00+
*       3.4060626372E+01               0
GRID*               3203               0-2.444240612E+019.9999031671E+00+
*       2.1988563521E+01               0
GRID*               3204               0-2.395203216E+019.9999081227E+00+
*       2.3928723101E+01               0
GRID*               3205               0-2.346165861E+019.9999176065E+00+
*       2.5868881057E+01               0
GRID*               3206               0-2.297128563E+019.9999317466E+00+
*       2.7809036778E+01               0
GRID*               3207               0-2.466035093E+011.1666579402E+01+
*       2.1126267084E+01               0
GRID*               3208               0-2.487829955E+011.3333294412E+01+
*       2.0263955607E+01               0
GRID*               3209               0-2.389754950E+011.3333271501E+01+
*       2.4144283199E+01               0
GRID*               3210               0-2.367960272E+011.1666579766E+01+
*       2.5006587415E+01               0
GRID*               3211               0-2.318922930E+011.1666592321E+01+
*       2.6946744878E+01               0
GRID*               3212               0-2.340717655E+011.3333286807E+01+
*       2.6084438799E+01               0
GRID*               3213               0-2.416997777E+011.1666586250E+01+
*       2.3066423535E+01               0
GRID*               3214               0-2.438792579E+011.3333289880E+01+
*       2.2204114378E+01               0
GRID*               3215               0-2.231746843E+015.0000865535E+00+
*       3.0395857890E+01               0
GRID*               3216               0-2.280784343E+015.0000857572E+00+
*       2.8455694176E+01               0
GRID*               3217               0-2.329821782E+015.0000821795E+00+
*       2.6515532907E+01               0
GRID*               3218               0-2.378859147E+015.0000730830E+00+
*       2.4575374544E+01               0
GRID*               3219               0-2.286232643E+011.6667264922E+00+
*       2.8240132730E+01               0
GRID*               3220               0-2.308027331E+013.3334178328E+00+
*       2.7377828132E+01               0
GRID*               3221               0-2.357064750E+013.3334113570E+00+
*       2.5437667648E+01               0
GRID*               3222               0-2.335269980E+011.6667140854E+00+
*       2.6299975486E+01               0
GRID*               3223               0-2.209952335E+013.3334171695E+00+
*       3.1258155358E+01               0
GRID*               3224               0-2.188157513E+011.6667159059E+00+
*       3.2120465305E+01               0
GRID*               3225               0-2.237195017E+011.6667154130E+00+
*       3.0180301421E+01               0
GRID*               3226               0-2.258989724E+013.3334067673E+00+
*       2.9317996067E+01               0
GRID*               3227               0-2.400652979E+016.6666844685E+00+
*       2.3713103801E+01               0
GRID*               3228               0-2.422446784E+018.3332914888E+00+
*       2.2850834104E+01               0
GRID*               3229               0-2.275334673E+018.3333152481E+00+
*       2.8671309821E+01               0
GRID*               3230               0-2.253540762E+016.6667020883E+00+
*       2.9533583705E+01               0
GRID*               3231               0-2.351615563E+016.6666887711E+00+
*       2.5653264169E+01               0
GRID*               3232               0-2.373409407E+018.3332990201E+00+
*       2.4790992953E+01               0
GRID*               3233               0-2.324372078E+018.3333107246E+00+
*       2.6731149871E+01               0
GRID*               3234               0-2.302578195E+016.6666967058E+00+
*       2.7593422641E+01               0
GRID*               3235               0-2.041042402E+011.6664992271E+00+
*       3.7941059693E+01               0
GRID*               3236               0-2.062837731E+013.3331097974E+00+
*       3.7078729716E+01               0
GRID*               3237               0-2.084633398E+014.9997725418E+00+
*       3.6216386352E+01               0
GRID*               3238               0-2.106428205E+016.6664666471E+00+
*       3.5354077038E+01               0
GRID*               3239               0-2.128222055E+018.3331950893E+00+
*       3.4491805576E+01               0
GRID*               3240               0-2.150015978E+019.9998767550E+00+
*       3.3629531245E+01               0
GRID*               3241               0-2.171810318E+011.1666565325E+01+
*       3.2767240392E+01               0
GRID*               3242               0-2.193605092E+011.3333276163E+01+
*       3.1904932373E+01               0
GRID*               3243               0-1.942908452E+011.6627204458E+00+
*       4.1823719399E+01               0
GRID*               3244               0-1.964715235E+013.3284187198E+00+
*       4.0960936283E+01               0
GRID*               3245               0-1.986546876E+014.9948509715E+00+
*       4.0097169625E+01               0
GRID*               3246               0-2.008367936E+016.6622423086E+00+
*       3.9233821601E+01               0
GRID*               3247               0-2.030160837E+018.3307241800E+00+
*       3.8371587672E+01               0
GRID*               3248               0-2.051945599E+019.9990807454E+00+
*       3.7509675814E+01               0
GRID*               3249               0-2.073737034E+011.1666297673E+01+
*       3.6647499907E+01               0
GRID*               3250               0-2.095530634E+011.3333201542E+01+
*       3.5785238314E+01               0
GRID*               3251               0-2.079188395E+018.3324845153E+00+
*       3.6431817338E+01               0
GRID*               3252               0-2.144567777E+011.3333261911E+01+
*       3.3845088771E+01               0
GRID*               3253               0-2.100980781E+019.9995517519E+00+
*       3.5569603805E+01               0
GRID*               3254               0-2.122774001E+011.1666449252E+01+
*       3.4707357268E+01               0
GRID*               3255               0-1.991986329E+011.6649645862E+00+
*       3.9881958217E+01               0
GRID*               3256               0-2.035596130E+014.9979999151E+00+
*       3.8156540873E+01               0
GRID*               3257               0-2.057397275E+016.6648418100E+00+
*       3.7293980791E+01               0
GRID*               3258               0-2.013787882E+013.3308711254E+00+
*       3.9019382004E+01               0
GRID*               3259               0-1.794744953E+011.6102244403E+00+
*       4.7685793123E+01               0
GRID*               3260               0-1.816585318E+013.2593291731E+00+
*       4.6821681327E+01               0
GRID*               3261               0-1.839213823E+014.9500661399E+00+
*       4.5926386849E+01               0
GRID*               3262               0-1.861975846E+016.6243944456E+00+
*       4.5025809723E+01               0
GRID*               3263               0-1.883899434E+018.2879689192E+00+
*       4.4158405213E+01               0
GRID*               3264               0-1.905322342E+019.9653166184E+00+
*       4.3310810007E+01               0
GRID*               3265               0-1.926857281E+011.1646974422E+01+
*       4.2458782355E+01               0
GRID*               3266               0-1.948503926E+011.3325938954E+01+
*       4.1602335046E+01               0
GRID*               3267               0-1.866339819E+013.2994604444E+00+
*       4.4853149552E+01               0
GRID*               3268               0-1.915592473E+013.3177771104E+00+
*       4.2904473340E+01               0
GRID*               3269               0-1.893764442E+011.6526446914E+00+
*       4.3768097165E+01               0
GRID*               3270               0-1.844454928E+011.6367510185E+00+
*       4.5719023045E+01               0
GRID*               3271               0-1.888528217E+014.9704230639E+00+
*       4.3975267870E+01               0
GRID*               3272               0-1.937536387E+014.9846493238E+00+
*       4.2036264605E+01               0
GRID*               3273               0-2.002936567E+019.9956284294E+00+
*       3.9448713172E+01               0
GRID*               3274               0-1.954037239E+019.9845224403E+00+
*       4.1383410104E+01               0
GRID*               3275               0-2.024714621E+011.1664704857E+01+
*       3.8587066671E+01               0
GRID*               3276               0-2.046497888E+011.3332746837E+01+
*       3.7725213913E+01               0
GRID*               3277               0-1.997482819E+011.3330739870E+01+
*       3.9664490151E+01               0
GRID*               3278               0-1.975764894E+011.1657546374E+01+
*       4.0523757625E+01               0
GRID*               3279               0-1.932376991E+018.3098113138E+00+
*       4.2240395587E+01               0
GRID*               3280               0-1.910626996E+016.6387816389E+00+
*       4.3100931928E+01               0
GRID*               3281               0-1.959441922E+016.6523743774E+00+
*       4.1169574338E+01               0
GRID*               3282               0-1.981227111E+018.3221477181E+00+
*       4.0307645558E+01               0
GRID*               3283               0-1.744144962E+011.6016134303E+00+
*       4.9687776628E+01               0
GRID*               3284               0-1.766646848E+013.1681035269E+00+
*       4.8797491774E+01               0
GRID*               3285               0-1.788688846E+014.9091400368E+00+
*       4.7925402406E+01               0
GRID*               3286               0-1.813819864E+016.6349032363E+00+
*       4.6931096249E+01               0
GRID*               3287               0-1.836867983E+018.2468831142E+00+
*       4.6019199761E+01               0
GRID*               3288               0-1.857141012E+019.9161618703E+00+
*       4.5217099446E+01               0
GRID*               3289               0-1.878134970E+011.1618615964E+01+
*       4.4386475641E+01               0
GRID*               3290               0-1.899564021E+011.3314085647E+01+
*       4.3538637389E+01               0
GRID*               3291               0-1.828974586E+011.1559538967E+01+
*       4.6331501188E+01               0
GRID*               3292               0-1.800433377E+011.3254713077E+01+
*       4.7460731215E+01               0
GRID*               3293               0-1.850425721E+011.3290447625E+01+
*       4.5482789232E+01               0
GRID*               3294               0-1.808922949E+019.8015544365E+00+
*       4.7124842190E+01               0
GRID*               3295               0-1.777534148E+011.1448195582E+01+
*       4.8366736869E+01               0
GRID*               3296               0-1.747286858E+011.3207105515E+01+
*       4.9563467809E+01               0
GRID*               3297               0-1.755033807E+019.4221990485E+00+
*       4.9256960573E+01               0
GRID*               3298               0-1.712954660E+018.2189732424E+00+
*       5.0921817718E+01               0
GRID*               3299               0-1.708324448E+019.9329666997E+00+
*       5.1105011573E+01               0
GRID*               3300               0-1.723455154E+011.1400286350E+01+
*       5.0506366753E+01               0
GRID*               3301               0-1.758415066E+016.8747339969E+00+
*       4.9123181391E+01               0
GRID*               3302               0-1.795426698E+018.1958725947E+00+
*       4.7658819974E+01               0
GRID*               3303               0-1.706868337E+016.1534270975E+00+
*       5.1162622467E+01               0
GRID*               3304               0-1.736714651E+014.6452097339E+00+
*       4.9981756113E+01               0
GRID*               3305               0-1.719999768E+013.0112958067E+00+
*       5.0643078754E+01               0
GRID*               4290               0-1.984367000E+001.8744399170E+00+
*       6.5321004225E+01               0
GRID*               4291               0-2.968540554E+003.7493338362E+00+
*       6.5178485017E+01               0
GRID*               4292               0-3.942728757E+005.6246106785E+00+
*       6.4979638455E+01               0
GRID*               4293               0-4.904542731E+007.5001968754E+00+
*       6.4724948979E+01               0
GRID*               4294               0-5.850012669E+009.3756077728E+00+
*       6.4415333124E+01               0
GRID*               4295               0-6.775537297E+001.1250506572E+01+
*       6.4052115434E+01               0
GRID*               4296               0-7.678565041E+001.3125039919E+01+
*       6.3636329521E+01               0
GRID*               4297               0-1.246118252E+011.8785403319E+00+
*       6.0129843704E+01               0
GRID*               4298               0-1.311711613E+013.7591736103E+00+
*       5.9407967156E+01               0
GRID*               4299               0-1.373206909E+015.6159614463E+00+
*       5.8649186856E+01               0
GRID*               4300               0-1.430652813E+017.4434633174E+00+
*       5.7851976237E+01               0
GRID*               4301               0-1.484295457E+019.2447732261E+00+
*       5.7009758331E+01               0
GRID*               4302               0-1.534931130E+011.1060458847E+01+
*       5.6100437651E+01               0
GRID*               4303               0-1.577825160E+011.3001837478E+01+
*       5.5211237491E+01               0
GRID*               4304               0-1.430456820E+013.7659680265E+00+
*       5.7854868288E+01               0
GRID*               4305               0-1.483898963E+011.9097697088E+00+
*       5.7016396052E+01               0
GRID*               4306               0-1.374326743E+011.8861277632E+00+
*       5.8634540659E+01               0
GRID*               4307               0-1.482285978E+015.6002934664E+00+
*       5.7043331492E+01               0
GRID*               4308               0-1.529504826E+013.7857747979E+00+
*       5.6204327259E+01               0
GRID*               4309               0-1.572199641E+011.9882564190E+00+
*       5.5335575343E+01               0
GRID*               4310               0-1.571048001E+015.5946634523E+00+
*       5.5360703158E+01               0
GRID*               4311               0-1.638739811E+015.6078321751E+00+
*       5.3652003612E+01               0
GRID*               4312               0-1.608230825E+013.8520552095E+00+
*       5.4488445265E+01               0
GRID*               4313               0-1.634008099E+012.3384819356E+00+
*       5.3790940769E+01               0
GRID*               4314               0-1.529990881E+017.3827453251E+00+
*       5.6195078439E+01               0
GRID*               4315               0-1.573964614E+019.0946674005E+00+
*       5.5296829107E+01               0
GRID*               4316               0-1.608840248E+017.3241709604E+00+
*       5.4472964885E+01               0
GRID*               4317               0-1.635485091E+018.8048950057E+00+
*       5.3747975347E+01               0
GRID*               4318               0-1.622537271E+011.0802867344E+01+
*       5.4112779025E+01               0
GRID*               4319               0-1.643485781E+011.3021293351E+01+
*       5.3508617626E+01               0
GRID*               4320               0-1.432736178E+011.1164074995E+01+
*       5.7821203715E+01               0
GRID*               4321               0-1.312596823E+011.1212614047E+01+
*       5.9397642176E+01               0
GRID*               4322               0-1.175253621E+011.1235152246E+01+
*       6.0825724613E+01               0
GRID*               4323               0-1.022259181E+011.1244993102E+01+
*       6.2088797393E+01               0
GRID*               4324               0-8.556038417E+001.1248719228E+01+
*       6.3169387680E+01               0
GRID*               4325               0-9.405206722E+001.3123131715E+01+
*       6.2652833744E+01               0
GRID*               4326               0-1.486490222E+011.3053636228E+01+
*       5.6972891334E+01               0
GRID*               4327               0-1.100707951E+011.3118878477E+01+
*       6.1478084038E+01               0
GRID*               4328               0-1.375390425E+011.3089752753E+01+
*       5.8620578532E+01               0
GRID*               4329               0-1.246267148E+011.3108837715E+01+
*       6.0128294163E+01               0
GRID*               4330               0-3.942877725E+001.8745688683E+00+
*       6.4979605630E+01               0
GRID*               4331               0-5.849193412E+001.8745937968E+00+
*       6.4415635065E+01               0
GRID*               4332               0-7.678246628E+001.8746278390E+00+
*       6.3636488213E+01               0
GRID*               4333               0-9.405595800E+001.8747304411E+00+
*       6.2652583276E+01               0
GRID*               4334               0-1.100719254E+011.8757357348E+00+
*       6.1477986544E+01               0
GRID*               4335               0-7.678208811E+009.3743412224E+00+
*       6.3636503857E+01               0
GRID*               4336               0-6.774773887E+007.4995636020E+00+
*       6.4052432893E+01               0
GRID*               4337               0-5.849312481E+005.6245890026E+00+
*       6.4415588235E+01               0
GRID*               4338               0-4.904178193E+003.7495343046E+00+
*       6.4725057276E+01               0
GRID*               4339               0-6.774829267E+003.7495161824E+00+
*       6.4052413312E+01               0
GRID*               4340               0-8.555612360E+003.7494204158E+00+
*       6.3169628561E+01               0
GRID*               4341               0-1.022225220E+013.7498051004E+00+
*       6.2089053653E+01               0
GRID*               4342               0-1.174973559E+013.7524635249E+00+
*       6.0828317460E+01               0
GRID*               4343               0-1.245205562E+015.6199403206E+00+
*       6.0139329840E+01               0
GRID*               4344               0-1.311587267E+017.4729101041E+00+
*       5.9409411391E+01               0
GRID*               4345               0-1.374090371E+019.3138403339E+00+
*       5.8637625215E+01               0
GRID*               4346               0-1.245582864E+019.3480094167E+00+
*       6.0135407554E+01               0
GRID*               4347               0-1.100369923E+019.3641850240E+00+
*       6.1480866170E+01               0
GRID*               4348               0-9.403816554E+009.3709570523E+00+
*       6.2653733782E+01               0
GRID*               4349               0-1.100240656E+015.6219835801E+00+
*       6.1481931670E+01               0
GRID*               4350               0-1.174705914E+017.4866863185E+00+
*       6.0830798436E+01               0
GRID*               4351               0-1.021992963E+017.4941188825E+00+
*       6.2090745106E+01               0
GRID*               4352               0-8.554683449E+007.4977258205E+00+
*       6.3170158142E+01               0
GRID*               4353               0-7.677772549E+005.6241244620E+00+
*       6.3636717744E+01               0
GRID*               4354               0-9.403117890E+005.6228146242E+00+
*       6.2654188380E+01               0
GRID*               4355               07.6787483328E+001.8744246409E+00+
*       6.3636238642E+01               0
GRID*               4356               06.7755774917E+003.7493223609E+00+
*       6.4052098311E+01               0
GRID*               4357               05.8498554727E+005.6247092361E+00+
*       6.4415389657E+01               0
GRID*               4358               04.9042462374E+007.5004271161E+00+
*       6.4725036693E+01               0
GRID*               4359               03.9424607548E+009.3759267715E+00+
*       6.4979701234E+01               0
GRID*               4360               02.9684390512E+001.1250866731E+01+
*       6.5178502712E+01               0
GRID*               4361               01.9843912071E+001.3125522781E+01+
*       6.5321001429E+01               0
GRID*               4362               0-3.943621964E+009.3755665701E+00+
*       6.4979433509E+01               0
GRID*               4363               0-1.984821803E+009.3754464587E+00+
*       6.5320945907E+01               0
GRID*               4364               0-2.685585763E-049.3754714158E+00+
*       6.5435287473E+01               0
GRID*               4365               01.9843105703E+009.3755425480E+00+
*       6.5321007036E+01               0
GRID*               4366               0-2.606539067E-041.3125445366E+01+
*       6.5435287474E+01               0
GRID*               4367               09.9348638644E-011.1250605680E+01+
*       6.5406698741E+01               0
GRID*               4368               0-4.904777320E+001.1250552667E+01+
*       6.4724879133E+01               0
GRID*               4369               0-5.849695416E+001.3125253736E+01+
*       6.4415451495E+01               0
GRID*               4370               0-3.943446776E+001.3125343343E+01+
*       6.4979473747E+01               0
GRID*               4371               0-1.984998142E+001.3125374749E+01+
*       6.5320934800E+01               0
GRID*               4372               0-9.944288428E-011.1250510366E+01+
*       6.5406639063E+01               0
GRID*               4373               0-2.969156160E+001.1250433800E+01+
*       6.5178380259E+01               0
GRID*               4374               0-1.984342862E+005.6245616640E+00+
*       6.5321003305E+01               0
GRID*               4375               03.0663680196E-045.6245178859E+00+
*       6.5435287473E+01               0
GRID*               4376               01.9848290379E+005.6246132345E+00+
*       6.5320945071E+01               0
GRID*               4377               03.9435055129E+005.6247159580E+00+
*       6.4979460792E+01               0
GRID*               4378               02.9688732637E+007.5001871960E+00+
*       6.5178426254E+01               0
GRID*               4379               0-9.942073061E-017.5000636144E+00+
*       6.5406650669E+01               0
GRID*               4380               0-2.968994040E+007.5000922317E+00+
*       6.5178405194E+01               0
GRID*               4381               09.9419407813E-017.5000302817E+00+
*       6.5406651432E+01               0
GRID*               4382               04.9047373506E+003.7495295469E+00+
*       6.4724890958E+01               0
GRID*               4383               05.8497256401E+001.8746476636E+00+
*       6.4415440625E+01               0
GRID*               4384               02.7606417096E-041.8745588301E+00+
*       6.5435287473E+01               0
GRID*               4385               0-9.934803843E-013.7494272254E+00+
*       6.5406699087E+01               0
GRID*               4386               09.9445578808E-013.7494956783E+00+
*       6.5406637510E+01               0
GRID*               4387               02.9691572814E+003.7496043953E+00+
*       6.5178380064E+01               0
GRID*               4388               03.9434123388E+001.8747323705E+00+
*       6.4979481815E+01               0
GRID*               4389               01.9849436373E+001.8747484054E+00+
*       6.5320941099E+01               0
GRID*               4390               09.4060648545E+001.8745238885E+00+
*       6.2652277287E+01               0
GRID*               4391               08.5567184932E+003.7494891549E+00+
*       6.3169000299E+01               0
GRID*               4392               07.6785193017E+005.6250061484E+00+
*       6.3636349916E+01               0
GRID*               4393               06.7746897876E+007.5006935906E+00+
*       6.4052468715E+01               0
GRID*               4394               05.8490157229E+009.3760094888E+00+
*       6.4415694939E+01               0
GRID*               4395               04.9039318981E+001.1250913845E+01+
*       6.4725130136E+01               0
GRID*               4396               03.9428351925E+001.3125495010E+01+
*       6.4979615594E+01               0
GRID*               4397               01.1009124386E+011.8745457615E+00+
*       6.1476395286E+01               0
GRID*               4398               01.0224546676E+013.7495987532E+00+
*       6.2087363608E+01               0
GRID*               4399               09.4057830676E+005.6251638655E+00+
*       6.2652458805E+01               0
GRID*               4400               08.5558728408E+007.5008206669E+00+
*       6.3169480734E+01               0
GRID*               4401               07.6779465145E+009.3761143380E+00+
*       6.3636631498E+01               0
GRID*               4402               06.7745763257E+001.1250979337E+01+
*       6.4052521051E+01               0
GRID*               4403               05.8491217659E+001.3125511529E+01+
*       6.4415660828E+01               0
GRID*               4404               01.2465241880E+011.8817903749E+00+
*       6.0125619613E+01               0
GRID*               4405               01.1755662220E+013.7559252612E+00+
*       6.0822825804E+01               0
GRID*               4406               01.1007332465E+015.6283412609E+00+
*       6.1477866760E+01               0
GRID*               4407               01.0223278356E+017.5019194451E+00+
*       6.2088289752E+01               0
GRID*               4408               09.4049500266E+009.3764714109E+00+
*       6.2653000641E+01               0
GRID*               4409               08.5555263417E+001.1251091966E+01+
*       6.3169677555E+01               0
GRID*               4410               07.6781268329E+001.3125527328E+01+
*       6.3636547601E+01               0
GRID*               4411               01.3755353315E+011.8997513228E+00+
*       5.8618675016E+01               0
GRID*               4412               01.3128182972E+013.7770567223E+00+
*       5.9395057609E+01               0
GRID*               4413               01.2459481622E+015.6429351636E+00+
*       6.0131610622E+01               0
GRID*               4414               01.1751435955E+017.5084267517E+00+
*       6.0826742764E+01               0
GRID*               4415               01.1005450752E+019.3785660622E+00+
*       6.1479419219E+01               0
GRID*               4416               01.0222647500E+011.1251585814E+01+
*       6.2088763780E+01               0
GRID*               4417               09.4052676516E+001.3125619831E+01+
*       6.2652796057E+01               0
GRID*               4418               01.4865538722E+011.9408459495E+00+
*       5.6971819027E+01               0
GRID*               4419               01.4328986140E+013.8310613517E+00+
*       5.7818797390E+01               0
GRID*               4420               01.3743184232E+015.6819753769E+00+
*       5.8634636902E+01               0
GRID*               4421               01.3118118467E+017.5293971189E+00+
*       5.9406795350E+01               0
GRID*               4422               01.2454230926E+019.3856334021E+00+
*       6.0137070419E+01               0
GRID*               4423               01.1750648500E+011.1252704521E+01+
*       6.0827471401E+01               0
GRID*               4424               01.1006386902E+011.3125396336E+01+
*       6.1478651745E+01               0
GRID*               4425               01.5778674981E+011.9975178597E+00+
*       5.5210291628E+01               0
GRID*               4426               01.5350005311E+013.9379176206E+00+
*       5.6099097912E+01               0
GRID*               4427               01.4843779976E+015.7590292579E+00+
*       5.7008375586E+01               0
GRID*               4428               01.4307007982E+017.5625615299E+00+
*       5.7851268726E+01               0
GRID*               4429               01.3732644546E+019.3923268387E+00+
*       5.8648434274E+01               0
GRID*               4430               01.3116519716E+011.1248440018E+01+
*       5.9408661889E+01               0
GRID*               4431               01.2458617362E+011.3122548677E+01+
*       6.0132511039E+01               0
GRID*               4432               01.4304316171E+011.1239049510E+01+
*       5.7855239689E+01               0
GRID*               4433               01.4838688429E+011.3092248226E+01+
*       5.7016900050E+01               0
GRID*               4434               01.3742719487E+011.3116537654E+01+
*       5.8635258786E+01               0
GRID*               4435               01.4822985164E+019.4044131372E+00+
*       5.7043122534E+01               0
GRID*               4436               01.5294950210E+011.1217368240E+01+
*       5.6204513430E+01               0
GRID*               4437               01.5721909727E+011.3013018378E+01+
*       5.5335764952E+01               0
GRID*               4438               01.5710566789E+019.4076827709E+00+
*       5.5360514146E+01               0
GRID*               4439               01.6387431321E+019.3931112741E+00+
*       5.3651904723E+01               0
GRID*               4440               01.6082282418E+011.1149291426E+01+
*       5.4488510801E+01               0
GRID*               4441               01.6340045911E+011.2662155541E+01+
*       5.3791042358E+01               0
GRID*               4442               01.5300271958E+017.6204328067E+00+
*       5.6194387920E+01               0
GRID*               4443               01.5740099293E+015.9065848489E+00+
*       5.5295831320E+01               0
GRID*               4444               01.6088598496E+017.6770654902E+00+
*       5.4472466194E+01               0
GRID*               4445               01.6355051719E+016.1957187741E+00+
*       5.3747388830E+01               0
GRID*               4446               01.6225539733E+014.1966170276E+00+
*       5.4112324608E+01               0
GRID*               4447               01.6434934985E+011.9788466977E+00+
*       5.3508381015E+01               0
GRID*               4060               03.1111111092E+001.3333333343E+01+
*       -3.797239275E-14               0
GRID*               4061               02.2222222184E+001.1666666682E+01+
*       -3.723036985E-14               0
GRID*               4062               01.3333333290E+001.0000000015E+01+
*       -3.658861653E-14               0
GRID*               4063               04.4444444288E-018.3333333377E+00+
*       -3.621315595E-14               0
GRID*               4064               0-4.444444442E-016.6666666657E+00+
*       -3.615606513E-14               0
GRID*               4065               0-1.333333330E+004.9999999882E+00+
*       -3.578060454E-14               0
GRID*               4066               0-2.222222218E+003.3333333191E+00+
*       -3.513885122E-14               0
GRID*               4067               0-3.111111109E+001.6666666573E+00+
*       -3.439682833E-14               0
GRID*               4068               0-1.711158585E+011.6654975925E+00+
*       -2.262407913E-14               0
GRID*               4069               0-1.622246326E+013.3320920728E+00+
*       -2.357205049E-14               0
GRID*               4070               0-1.533335181E+014.9990637901E+00+
*       -2.426114327E-14               0
GRID*               4071               0-1.444435866E+016.6659248741E+00+
*       -2.510089122E-14               0
GRID*               4072               0-1.355548581E+018.3329997580E+00+
*       -2.600154533E-14               0
GRID*               4073               0-1.266664790E+019.9999304453E+00+
*       -2.692379496E-14               0
GRID*               4074               0-1.177777192E+011.1666649287E+01+
*       -2.783682357E-14               0
GRID*               4075               0-1.088888726E+011.3333329270E+01+
*       -2.870534252E-14               0
GRID*               4076               0-1.422226355E+013.3329149665E+00+
*       -2.582191244E-14               0
GRID*               4077               0-1.222222432E+013.3332326496E+00+
*       -2.780588177E-14               0
GRID*               4078               0-1.022222101E+013.3333079390E+00+
*       -2.956704752E-14               0
GRID*               4079               0-8.222221521E+003.3333269462E+00+
*       -3.114460876E-14               0
GRID*               4080               0-6.222221973E+003.3333318352E+00+
*       -3.257552196E-14               0
GRID*               4081               0-4.222222147E+003.3333329844E+00+
*       -3.389536895E-14               0
GRID*               4082               0-1.511123998E+011.6661628137E+00+
*       -2.488501725E-14               0
GRID*               4083               0-1.311113822E+011.6664830219E+00+
*       -2.689704695E-14               0
GRID*               4084               0-5.111111062E+001.6666663391E+00+
*       -3.312870218E-14               0
GRID*               4085               0-1.111111425E+011.6666102051E+00+
*       -2.869428258E-14               0
GRID*               4086               0-7.111110953E+001.6666649110E+00+
*       -3.177729840E-14               0
GRID*               4087               0-9.111110701E+001.6666502017E+00+
*       -3.031005733E-14               0
GRID*               4088               0-8.888888545E+001.3333332488E+01+
*       -3.029737412E-14               0
GRID*               4089               0-9.777776149E+001.1666662187E+01+
*       -2.948501663E-14               0
GRID*               4090               0-1.066666098E+019.9999813209E+00+
*       -2.863657039E-14               0
GRID*               4091               0-1.155553456E+018.3332485639E+00+
*       -2.779799217E-14               0
GRID*               4092               0-1.244440537E+016.6664378756E+00+
*       -2.701284842E-14               0
GRID*               4093               0-1.333331270E+014.9995665784E+00+
*       -2.634196922E-14               0
GRID*               4094               01.1111111101E+001.3333333338E+01+
*       -3.675507318E-14               0
GRID*               4095               0-8.888888891E-011.3333333334E+01+
*       -3.555614828E-14               0
GRID*               4096               0-2.888888889E+001.3333333333E+01+
*       -3.434324726E-14               0
GRID*               4097               0-4.888888888E+001.3333333330E+01+
*       -3.308402861E-14               0
GRID*               4098               0-6.888888816E+001.3333333156E+01+
*       -3.174617228E-14               0
GRID*               4099               0-7.777777353E+001.1666665558E+01+
*       -3.097614616E-14               0
GRID*               4100               0-8.666665017E+009.9999950775E+00+
*       -3.018110990E-14               0
GRID*               4101               0-9.555549365E+008.3333113814E+00+
*       -2.941984996E-14               0
GRID*               4102               0-1.044442986E+016.6665996206E+00+
*       -2.875181101E-14               0
GRID*               4103               0-1.133331550E+014.9998446897E+00+
*       -2.826566100E-14               0
GRID*               4104               0-9.333325633E+004.9999528998E+00+
*       -3.007078258E-14               0
GRID*               4105               0-7.333331064E+004.9999888792E+00+
*       -3.170030720E-14               0
GRID*               4106               0-5.333332690E+004.9999973360E+00+
*       -3.316756869E-14               0
GRID*               4107               0-3.333333162E+004.9999993781E+00+
*       -3.451450704E-14               0
GRID*               4108               0-2.444444391E+006.6666665053E+00+
*       -3.478756493E-14               0
GRID*               4109               0-1.555555541E+008.3333332960E+00+
*       -3.490198189E-14               0
GRID*               4110               0-6.666666641E-019.9999999954E+00+
*       -3.536553859E-14               0
GRID*               4111               02.2222222097E-011.1666666672E+01+
*       -3.602913560E-14               0
GRID*               4112               0-1.777777777E+001.1666666666E+01+
*       -3.483643352E-14               0
GRID*               4113               0-3.777777775E+001.1666666659E+01+
*       -3.361882990E-14               0
GRID*               4114               0-5.777777673E+001.1666666403E+01+
*       -3.234309439E-14               0
GRID*               4115               0-6.666666199E+009.9999986964E+00+
*       -3.159162637E-14               0
GRID*               4116               0-7.555553703E+008.3333273680E+00+
*       -3.090368407E-14               0
GRID*               4117               0-8.444437590E+006.6666387228E+00+
*       -3.035818183E-14               0
GRID*               4118               0-6.444441998E+006.6666577682E+00+
*       -3.187329534E-14               0
GRID*               4119               0-4.444443720E+006.6666642752E+00+
*       -3.333971990E-14               0
GRID*               4120               0-3.555555368E+008.3333328159E+00+
*       -3.360646314E-14               0
GRID*               4121               0-2.666666622E+009.9999998948E+00+
*       -3.414881257E-14               0
GRID*               4122               0-4.666666497E+009.9999995474E+00+
*       -3.290259171E-14               0
GRID*               4123               0-5.555554371E+008.3333298047E+00+
*       -3.228661411E-14               0
GRID*               4124               0-1.888720170E+011.3329319905E+01+
*       -2.026144713E-14               0
GRID*               4125               0-1.977103882E+011.1649951695E+01+
*       -1.902652146E-14               0
GRID*               4126               0-2.064892718E+019.9652864291E+00+
*       -1.773651933E-14               0
GRID*               4127               0-2.151987078E+018.2882450224E+00+
*       -1.640349004E-14               0
GRID*               4128               0-2.241041013E+016.6258523023E+00+
*       -1.499066474E-14               0
GRID*               4129               0-2.333948751E+014.9503279880E+00+
*       -1.346123629E-14               0
GRID*               4130               0-2.426126078E+013.2588489434E+00+
*       -1.188473842E-14               0
GRID*               4131               0-2.515366105E+011.6100144658E+00+
*       -1.031398799E-14               0
GRID*               4132               0-2.721970648E+011.6013426921E+00+
*       -6.227605899E-15               0
GRID*               4133               0-2.630050124E+013.1679992621E+00+
*       -8.080459050E-15               0
GRID*               4134               0-2.540086164E+014.9095092727E+00+
*       -9.813647167E-15               0
GRID*               4135               0-2.437619826E+016.6356857988E+00+
*       -1.169633075E-14               0
GRID*               4136               0-2.343704045E+018.2478325028E+00+
*       -1.334346784E-14               0
GRID*               4137               0-2.261177130E+019.9169623235E+00+
*       -1.473749316E-14               0
GRID*               4138               0-2.175648117E+011.1619764286E+01+
*       -1.612480411E-14               0
GRID*               4139               0-2.088244692E+011.3315480428E+01+
*       -1.747624307E-14               0
GRID*               4140               0-2.376056001E+011.1560264066E+01+
*       -1.284302725E-14               0
GRID*               4141               0-2.492454270E+011.3255084827E+01+
*       -1.077323637E-14               0
GRID*               4142               0-2.288591579E+011.3291039777E+01+
*       -1.434233998E-14               0
GRID*               4143               0-2.457761996E+019.8022826971E+00+
*       -1.137701004E-14               0
GRID*               4144               0-2.585823348E+011.1448630595E+01+
*       -8.992998500E-15               0
GRID*               4145               0-2.709205493E+011.3207282178E+01+
*       -6.519805371E-15               0
GRID*               4146               0-2.677542935E+019.4226790123E+00+
*       -7.158534112E-15               0
GRID*               4147               0-2.849188846E+018.2192469982E+00+
*       -3.498248578E-15               0
GRID*               4148               0-2.868087553E+019.9331702130E+00+
*       -3.076447090E-15               0
GRID*               4149               0-2.806382182E+011.1400480093E+01+
*       -4.446821773E-15               0
GRID*               4150               0-2.663698496E+016.8751543577E+00+
*       -7.425343742E-15               0
GRID*               4151               0-2.512740380E+018.1965788631E+00+
*       -1.035283286E-14               0
GRID*               4152               0-2.874015393E+016.1535511323E+00+
*       -2.939481176E-15               0
GRID*               4153               0-2.752221850E+014.6452444486E+00+
*       -5.593310562E-15               0
GRID*               4154               0-2.820421498E+013.0112016672E+00+
*       -4.126372655E-15               0
GRID*               4155               0-2.133002560E+014.9723108176E+00+
*       -1.663156477E-14               0
GRID*               4156               0-1.933223537E+014.9871841245E+00+
*       -1.944926045E-14               0
GRID*               4157               0-1.733322858E+014.9952071827E+00+
*       -2.197816413E-14               0
GRID*               4158               0-1.911309998E+011.6613265895E+00+
*       -2.007774029E-14               0
GRID*               4159               0-1.822299507E+013.3265935954E+00+
*       -2.105235718E-14               0
GRID*               4160               0-2.223311738E+013.2981551198E+00+
*       -1.527785211E-14               0
GRID*               4161               0-2.312712815E+011.6367513874E+00+
*       -1.396106546E-14               0
GRID*               4162               0-2.111636897E+011.6524099780E+00+
*       -1.720758983E-14               0
GRID*               4163               0-2.022417205E+013.3159958860E+00+
*       -1.830815162E-14               0
GRID*               4164               0-1.466655949E+019.9996087670E+00+
*       -2.500882106E-14               0
GRID*               4165               0-1.666592459E+019.9974919746E+00+
*       -2.285827994E-14               0
GRID*               4166               0-1.866073623E+019.9862968737E+00+
*       -2.044356948E-14               0
GRID*               4167               0-1.688835290E+011.3332049502E+01+
*       -2.274763566E-14               0
GRID*               4168               0-1.777476230E+011.1659676024E+01+
*       -2.162532046E-14               0
GRID*               4169               0-1.377770555E+011.1666464866E+01+
*       -2.599879733E-14               0
GRID*               4170               0-1.288886771E+011.3333282038E+01+
*       -2.693780910E-14               0
GRID*               4171               0-1.488872606E+011.3332943096E+01+
*       -2.496260498E-14               0
GRID*               4172               0-1.577689276E+011.1664498403E+01+
*       -2.393886317E-14               0
GRID*               4173               0-1.755310823E+018.3256388859E+00+
*       -2.174296997E-14               0
GRID*               4174               0-1.844130893E+016.6551010218E+00+
*       -2.060339448E-14               0
GRID*               4175               0-2.043004949E+016.6404019281E+00+
*       -1.795264085E-14               0
GRID*               4176               0-1.954184857E+018.3095113243E+00+
*       -1.922192453E-14               0
GRID*               4177               0-1.644332764E+016.6619725715E+00+
*       -2.297732004E-14               0
GRID*               4178               0-1.555466549E+018.3303908200E+00+
*       -2.399504562E-14               0
GRID*               4179               01.7111473357E+011.3334731502E+01+
*       -4.974502245E-14               0
GRID*               4180               01.6222358434E+011.1667954318E+01+
*       -4.879703272E-14               0
GRID*               4181               01.5333340569E+011.0000680237E+01+
*       -4.810809305E-14               0
GRID*               4182               01.4444433232E+018.3335953344E+00+
*       -4.726840932E-14               0
GRID*               4183               01.3555544374E+016.6667569894E+00+
*       -4.636772045E-14               0
GRID*               4184               01.2666662019E+015.0000225185E+00+
*       -4.544543552E-14               0
GRID*               4185               01.1777775242E+013.3333415130E+00+
*       -4.453239969E-14               0
GRID*               4186               01.0888888016E+011.6666689397E+00+
*       -4.366387909E-14               0
GRID*               4187               01.4222242812E+011.1667062921E+01+
*       -4.654728995E-14               0
GRID*               4188               01.2222221535E+011.1666761351E+01+
*       -4.456333706E-14               0
GRID*               4189               01.0222220762E+011.1666690335E+01+
*       -4.280217335E-14               0
GRID*               4190               08.2222215558E+001.1666672423E+01+
*       -4.122461231E-14               0
GRID*               4191               06.2222219890E+001.1666668063E+01+
*       -3.979369912E-14               0
GRID*               4192               04.2222221517E+001.1666666996E+01+
*       -3.847385213E-14               0
GRID*               4193               09.1111109517E+001.3333339683E+01+
*       -4.205916273E-14               0
GRID*               4194               05.1111110600E+001.3333333675E+01+
*       -3.924051890E-14               0
GRID*               4195               07.1111108763E+001.3333335807E+01+
*       -4.059192271E-14               0
GRID*               4196               01.3111123135E+011.3333441356E+01+
*       -4.547215169E-14               0
GRID*               4197               01.5111194357E+011.3333897194E+01+
*       -4.748416074E-14               0
GRID*               4198               01.1111112130E+011.3333374741E+01+
*       -4.367493495E-14               0
GRID*               4199               08.8888887063E+001.6666671329E+00+
*       -4.207184706E-14               0
GRID*               4200               09.7777770381E+003.3333354977E+00+
*       -4.288420495E-14               0
GRID*               4201               01.0666664934E+015.0000067143E+00+
*       -4.373265296E-14               0
GRID*               4202               01.1555551157E+016.6666917757E+00+
*       -4.457124080E-14               0
GRID*               4203               01.2444436705E+018.3334176449E+00+
*       -4.535640695E-14               0
GRID*               4204               01.3333325605E+011.0000274631E+01+
*       -4.602729398E-14               0
GRID*               4205               0-1.111111110E+001.6666666625E+00+
*       -3.561414790E-14               0
GRID*               4206               08.8888888911E-011.6666666659E+00+
*       -3.681307279E-14               0
GRID*               4207               02.8888888889E+001.6666666665E+00+
*       -3.802597382E-14               0
GRID*               4208               04.8888888884E+001.6666666679E+00+
*       -3.928519246E-14               0
GRID*               4209               06.8888888505E+001.6666667628E+00+
*       -4.062304881E-14               0
GRID*               4210               07.7777775799E+003.3333338762E+00+
*       -4.139307502E-14               0
GRID*               4211               08.6666660956E+005.0000019024E+00+
*       -4.218811173E-14               0
GRID*               4212               09.5555539725E+006.6666738114E+00+
*       -4.294937434E-14               0
GRID*               4213               01.0444440685E+018.3333594070E+00+
*       -4.361742261E-14               0
GRID*               4214               01.1333325989E+011.0000092120E+01+
*       -4.410358815E-14               0
GRID*               4215               09.3333298583E+001.0000027536E+01+
*       -4.229844863E-14               0
GRID*               4216               07.3333321100E+001.0000006991E+01+
*       -4.066891557E-14               0
GRID*               4217               05.3333329408E+001.0000001792E+01+
*       -3.920165267E-14               0
GRID*               4218               03.3333332192E+001.0000000441E+01+
*       -3.785471409E-14               0
GRID*               4219               02.4444444063E+008.3333334541E+00+
*       -3.758165617E-14               0
GRID*               4220               01.5555555444E+006.6666666962E+00+
*       -3.746723919E-14               0
GRID*               4221               06.6666666460E-015.0000000041E+00+
*       -3.700368249E-14               0
GRID*               4222               0-2.222222210E-013.3333333285E+00+
*       -3.634008547E-14               0
GRID*               4223               01.7777777772E+003.3333333340E+00+
*       -3.753278756E-14               0
GRID*               4224               03.7777777761E+003.3333333377E+00+
*       -3.875039118E-14               0
GRID*               4225               05.7777777285E+003.3333334633E+00+
*       -4.002612671E-14               0
GRID*               4226               06.6666664881E+005.0000005414E+00+
*       -4.077759485E-14               0
GRID*               4227               07.5555549706E+006.6666689087E+00+
*       -4.146553792E-14               0
GRID*               4228               08.4444420657E+008.3333460159E+00+
*       -4.201104501E-14               0
GRID*               4229               06.4444434345E+008.3333377386E+00+
*       -4.049592786E-14               0
GRID*               4230               04.4444440954E+008.3333346340E+00+
*       -3.902950183E-14               0
GRID*               4231               03.5555554592E+006.6666669603E+00+
*       -3.876275802E-14               0
GRID*               4232               02.6666666427E+005.0000000611E+00+
*       -3.822040852E-14               0
GRID*               4233               04.6666665910E+005.0000002191E+00+
*       -3.946662941E-14               0
GRID*               4234               05.5555550871E+006.6666682766E+00+
*       -4.008260753E-14               0
GRID*               4235               01.8887202126E+011.6706626291E+00+
*       -5.210777416E-14               0
GRID*               4236               01.9771031715E+013.3498515772E+00+
*       -5.334268397E-14               0
GRID*               4237               02.0649189189E+015.0342938480E+00+
*       -5.463306666E-14               0
GRID*               4238               02.1519966553E+016.7116201496E+00+
*       -5.596587199E-14               0
GRID*               4239               02.2410133659E+018.3742692316E+00+
*       -5.737812082E-14               0
GRID*               4240               02.3339318863E+011.0049714339E+01+
*       -5.890770360E-14               0
GRID*               4241               02.4261196581E+011.1741315511E+01+
*       -6.048436722E-14               0
GRID*               4242               02.5153645081E+011.3390066962E+01+
*       -6.205519763E-14               0
GRID*               4243               02.7219703327E+011.3398680640E+01+
*       -6.614160836E-14               0
GRID*               4244               02.6300488922E+011.1832061836E+01+
*       -6.428873769E-14               0
GRID*               4245               02.5400819550E+011.0090548811E+01+
*       -6.255549538E-14               0
GRID*               4246               02.4376112574E+018.3643441529E+00+
*       -6.067273886E-14               0
GRID*               4247               02.3436989412E+016.7521313525E+00+
*       -5.902566658E-14               0
GRID*               4248               02.2611822523E+015.0829054705E+00+
*       -5.763180791E-14               0
GRID*               4249               02.1756536185E+013.3800952509E+00+
*       -5.624449916E-14               0
GRID*               4250               02.0882454341E+011.6844532918E+00+
*       -5.489298803E-14               0
GRID*               4251               02.3760577884E+013.4396716961E+00+
*       -5.952622397E-14               0
GRID*               4252               02.4924544573E+011.7448951175E+00+
*       -6.159598807E-14               0
GRID*               4253               02.2885931061E+011.7089108254E+00+
*       -5.802690589E-14               0
GRID*               4254               02.4577623688E+015.1976705664E+00+
*       -6.099221719E-14               0
GRID*               4255               02.5858237681E+013.5513425656E+00+
*       -6.337623058E-14               0
GRID*               4256               02.7092055737E+011.7927087842E+00+
*       -6.584941736E-14               0
GRID*               4257               02.6775431974E+015.5773084964E+00+
*       -6.521069224E-14               0
GRID*               4258               02.8491889670E+016.7807538526E+00+
*       -6.887097521E-14               0
GRID*               4259               02.8680876211E+015.0668258612E+00+
*       -6.929277551E-14               0
GRID*               4260               02.8063823645E+013.5995107092E+00+
*       -6.792240328E-14               0
GRID*               4261               02.6636966825E+018.1248585160E+00+
*       -6.494384092E-14               0
GRID*               4262               02.5127375420E+016.8034092251E+00+
*       -6.201633547E-14               0
GRID*               4263               02.8740152716E+018.8464553740E+00+
*       -6.942973716E-14               0
GRID*               4264               02.7522205926E+011.0354780341E+01+
*       -6.677588407E-14               0
GRID*               4265               02.8204208539E+011.1988821516E+01+
*       -6.824283436E-14               0
GRID*               4266               02.1329397469E+011.0027275769E+01+
*       -5.573672118E-14               0
GRID*               4267               01.9331700010E+011.0012163675E+01+
*       -5.291925988E-14               0
GRID*               4268               01.7333067875E+011.0004234811E+01+
*       -5.039089446E-14               0
GRID*               4269               02.1117485604E+011.3346342854E+01+
*       -5.516337375E-14               0
GRID*               4270               02.0224783327E+011.1682312685E+01+
*       -5.406211755E-14               0
GRID*               4271               01.8222544963E+011.1673327895E+01+
*       -5.131628826E-14               0
GRID*               4272               01.9112649592E+011.3339610301E+01+
*       -5.229089847E-14               0
GRID*               4273               02.2232696748E+011.1702294020E+01+
*       -5.709068212E-14               0
GRID*               4274               02.3126984304E+011.3363496478E+01+
*       -5.840787396E-14               0
GRID*               4275               01.4666610714E+015.0002012730E+00+
*       -4.736043998E-14               0
GRID*               4276               01.6665952536E+015.0022952951E+00+
*       -4.951096178E-14               0
GRID*               4277               01.8661049543E+015.0133934188E+00+
*       -5.192604067E-14               0
GRID*               4278               01.6888356173E+011.6679287625E+00+
*       -4.962158865E-14               0
GRID*               4279               01.7774827358E+013.3401890248E+00+
*       -5.074397501E-14               0
GRID*               4280               01.3777720632E+013.3334881742E+00+
*       -4.637043543E-14               0
GRID*               4281               01.2888871672E+011.6667076220E+00+
*       -4.543141522E-14               0
GRID*               4282               01.4888730875E+011.6670398202E+00+
*       -4.740662052E-14               0
GRID*               4283               01.5776924053E+013.3353916690E+00+
*       -4.843038638E-14               0
GRID*               4284               01.6444183432E+018.3358571473E+00+
*       -4.939284110E-14               0
GRID*               4285               01.5555220037E+016.6682010778E+00+
*       -4.837470093E-14               0
GRID*               4286               01.8441605566E+018.3440652251E+00+
*       -5.176618435E-14               0
GRID*               4287               01.7552829528E+016.6749790225E+00+
*       -5.062594381E-14               0
GRID*               4288               01.9543085890E+016.6897217167E+00+
*       -5.314893219E-14               0
GRID*               4289               02.0428759321E+018.3600587434E+00+
*       -5.441476892E-14               0
GRID*               5412               07.2444522377E+00-1.800000582E+01+
*       5.3761092129E+01               0
GRID*               5413               06.4952048958E+00-1.800000754E+01+
*       5.5569923036E+01               0
GRID*               5414               05.3033109079E+00-1.800000548E+01+
*       5.7123240134E+01               0
GRID*               5415               03.7500045787E+00-1.800000291E+01+
*       5.8315159328E+01               0
GRID*               5416               01.9411430331E+00-1.800000084E+01+
*       5.9064448182E+01               0
GRID*               5417               0-2.427077354E-06-1.800000000E+01+
*       5.9320018768E+01               0
GRID*               5418               0-1.941072094E+00-1.800000582E+01+
*       5.9064473446E+01               0
GRID*               5419               0-3.749902254E+00-1.800000754E+01+
*       5.8315223839E+01               0
GRID*               5420               0-5.303220584E+00-1.800000548E+01+
*       5.7123330354E+01               0
GRID*               5421               0-6.495140405E+00-1.800000291E+01+
*       5.5570025374E+01               0
GRID*               5422               0-7.244427024E+00-1.800000084E+01+
*       5.3761163084E+01               0
GRID*               5423               0-7.500000000E+00-1.800000000E+01+
*       5.1820017729E+01               0
GRID*               5424               0-7.244451973E+00-1.800000582E+01+
*       4.9878948206E+01               0
GRID*               5425               0-6.495204751E+00-1.800000754E+01+
*       4.8070117326E+01               0
GRID*               5426               0-5.303310346E+00-1.800000548E+01+
*       4.6516799928E+01               0
GRID*               5427               0-3.750004818E+00-1.800000291E+01+
*       4.5324880679E+01               0
GRID*               5428               0-1.941142666E+00-1.800000084E+01+
*       4.4575592987E+01               0
GRID*               5429               02.4270757695E-06-1.800000000E+01+
*       4.4320018768E+01               0
GRID*               5430               01.9410717229E+00-1.800000582E+01+
*       4.4575567735E+01               0
GRID*               5431               03.7499024669E+00-1.800000754E+01+
*       4.5324816210E+01               0
GRID*               5432               05.3032200916E+00-1.800000548E+01+
*       4.6516709638E+01               0
GRID*               5433               06.4951402362E+00-1.800000291E+01+
*       4.8070015004E+01               0
GRID*               5434               07.2444267575E+00-1.800000084E+01+
*       4.9878877250E+01               0
GRID*               5435               07.2444032335E+00-1.599999351E+01+
*       5.3761232167E+01               0
GRID*               5436               06.4952707192E+00-1.600001781E+01+
*       5.5569818237E+01               0
GRID*               5437               05.3034109430E+00-1.600001721E+01+
*       5.7123140211E+01               0
GRID*               5438               03.7500777859E+00-1.600001009E+01+
*       5.8315113327E+01               0
GRID*               5439               01.9411682209E+00-1.600000306E+01+
*       5.9064439350E+01               0
GRID*               5440               0-2.427077339E-06-1.600000000E+01+
*       5.9320018768E+01               0
GRID*               5441               0-1.941212099E+00-1.599999351E+01+
*       5.9064424350E+01               0
GRID*               5442               0-3.749797468E+00-1.600001781E+01+
*       5.8315289683E+01               0
GRID*               5443               0-5.303120549E+00-1.600001721E+01+
*       5.7123430277E+01               0
GRID*               5444               0-6.495094419E+00-1.600001009E+01+
*       5.5570098591E+01               0
GRID*               5445               0-7.244418208E+00-1.600000306E+01+
*       5.3761188278E+01               0
GRID*               5446               0-7.500000000E+00-1.600000000E+01+
*       5.1820017729E+01               0
GRID*               5447               0-7.244402965E+00-1.599999351E+01+
*       4.9878808168E+01               0
GRID*               5448               0-6.495270598E+00-1.600001781E+01+
*       4.8070222110E+01               0
GRID*               5449               0-5.303410307E+00-1.600001721E+01+
*       4.6516899926E+01               0
GRID*               5450               0-3.750078043E+00-1.600001009E+01+
*       4.5324926650E+01               0
GRID*               5451               0-1.941167855E+00-1.600000306E+01+
*       4.4575601815E+01               0
GRID*               5452               02.4270757655E-06-1.600000000E+01+
*       4.4320018768E+01               0
GRID*               5453               01.9412117369E+00-1.599999351E+01+
*       4.4575616808E+01               0
GRID*               5454               03.7497976553E+00-1.600001781E+01+
*       4.5324750409E+01               0
GRID*               5455               05.3031201306E+00-1.600001721E+01+
*       4.6516609640E+01               0
GRID*               5456               06.4950942330E+00-1.600001009E+01+
*       4.8069941799E+01               0
GRID*               5457               07.2444179409E+00-1.600000306E+01+
*       4.9878852057E+01               0
GRID*               5458               07.2443712045E+00-1.399998546E+01+
*       5.3761323696E+01               0
GRID*               5459               06.4952234919E+00-1.400001043E+01+
*       5.5569893429E+01               0
GRID*               5460               05.3034965082E+00-1.400002725E+01+
*       5.7123054741E+01               0
GRID*               5461               03.7501685708E+00-1.400001898E+01+
*       5.8315056281E+01               0
GRID*               5462               01.9412040082E+00-1.400000620E+01+
*       5.9064426800E+01               0
GRID*               5463               0-2.427077337E-06-1.400000000E+01+
*       5.9320018768E+01               0
GRID*               5464               0-1.941303610E+00-1.399998546E+01+
*       5.9064392260E+01               0
GRID*               5465               0-3.749872652E+00-1.400001043E+01+
*       5.8315242441E+01               0
GRID*               5466               0-5.303034983E+00-1.400002725E+01+
*       5.7123515747E+01               0
GRID*               5467               0-6.495037390E+00-1.400001898E+01+
*       5.5570189387E+01               0
GRID*               5468               0-7.244405682E+00-1.400000620E+01+
*       5.3761224073E+01               0
GRID*               5469               0-7.500000000E+00-1.400000000E+01+
*       5.1820017729E+01               0
GRID*               5470               0-7.244370934E+00-1.399998546E+01+
*       4.9878716640E+01               0
GRID*               5471               0-6.495223353E+00-1.400001043E+01+
*       4.8070146929E+01               0
GRID*               5472               0-5.303495809E+00-1.400002725E+01+
*       4.6516985460E+01               0
GRID*               5473               0-3.750168851E+00-1.400001898E+01+
*       4.5324983660E+01               0
GRID*               5474               0-1.941203645E+00-1.400000620E+01+
*       4.4575614359E+01               0
GRID*               5475               02.4270757469E-06-1.400000000E+01+
*       4.4320018768E+01               0
GRID*               5476               01.9413032518E+00-1.399998546E+01+
*       4.4575648884E+01               0
GRID*               5477               03.7498728580E+00-1.400001043E+01+
*       4.5324797622E+01               0
GRID*               5478               05.3030346287E+00-1.400002725E+01+
*       4.6516524106E+01               0
GRID*               5479               06.4950371841E+00-1.400001898E+01+
*       4.8069851016E+01               0
GRID*               5480               07.2444054140E+00-1.400000620E+01+
*       4.9878816263E+01               0
GRID*               5481               07.2443683473E+00-1.199998474E+01+
*       5.3761331861E+01               0
GRID*               5482               06.4950357720E+00-1.199998115E+01+
*       5.5570192303E+01               0
GRID*               5483               05.3034850288E+00-1.200002591E+01+
*       5.7123066208E+01               0
GRID*               5484               03.7502456489E+00-1.200002653E+01+
*       5.8315007848E+01               0
GRID*               5485               01.9412445295E+00-1.200000976E+01+
*       5.9064412590E+01               0
GRID*               5486               0-2.427077334E-06-1.200000000E+01+
*       5.9320018768E+01               0
GRID*               5487               0-1.941311774E+00-1.199998474E+01+
*       5.9064389397E+01               0
GRID*               5488               0-3.750171487E+00-1.199998115E+01+
*       5.8315054662E+01               0
GRID*               5489               0-5.303046462E+00-1.200002591E+01+
*       5.7123504281E+01               0
GRID*               5490               0-6.494988972E+00-1.200002653E+01+
*       5.5570266475E+01               0
GRID*               5491               0-7.244391499E+00-1.200000976E+01+
*       5.3761264603E+01               0
GRID*               5492               0-7.500000000E+00-1.200000000E+01+
*       5.1820017729E+01               0
GRID*               5493               0-7.244368077E+00-1.199998474E+01+
*       4.9878708475E+01               0
GRID*               5494               0-6.495035566E+00-1.199998115E+01+
*       4.8069848100E+01               0
GRID*               5495               0-5.303484339E+00-1.200002591E+01+
*       4.6516973985E+01               0
GRID*               5496               0-3.750245948E+00-1.200002653E+01+
*       4.5325032062E+01               0
GRID*               5497               0-1.941244168E+00-1.200000976E+01+
*       4.4575628562E+01               0
GRID*               5498               02.4270757282E-06-1.200000000E+01+
*       4.4320018768E+01               0
GRID*               5499               01.9413114158E+00-1.199998474E+01+
*       4.4575651745E+01               0
GRID*               5500               03.7501717678E+00-1.199998115E+01+
*       4.5324985279E+01               0
GRID*               5501               05.3030460997E+00-1.200002591E+01+
*       4.6516535581E+01               0
GRID*               5502               06.4949887485E+00-1.200002653E+01+
*       4.8069773940E+01               0
GRID*               5503               07.2443912301E+00-1.200000976E+01+
*       4.9878775733E+01               0
GRID*               5504               07.2443769712E+00-9.999986906E+00+
*       5.3761307216E+01               0
GRID*               5505               06.4949730479E+00-9.999971367E+00+
*       5.5570292167E+01               0
GRID*               5506               05.3032640335E+00-1.000000000E+01+
*       5.7123286956E+01               0
GRID*               5507               03.7502671344E+00-1.000002863E+01+
*       5.8314994347E+01               0
GRID*               5508               01.9412824422E+00-1.000001309E+01+
*       5.9064399295E+01               0
GRID*               5509               0-2.427077326E-06-1.000000000E+01+
*       5.9320018768E+01               0
GRID*               5510               0-1.941287135E+00-9.999986906E+00+
*       5.9064398037E+01               0
GRID*               5511               0-3.750271339E+00-9.999971367E+00+
*       5.8314991919E+01               0
GRID*               5512               0-5.303267455E+00-1.000000000E+01+
*       5.7123283535E+01               0
GRID*               5513               0-6.494975476E+00-1.000002863E+01+
*       5.5570287963E+01               0
GRID*               5514               0-7.244378229E+00-1.000001309E+01+
*       5.3761302523E+01               0
GRID*               5515               0-7.500000000E+00-1.000000000E+01+
*       5.1820017729E+01               0
GRID*               5516               0-7.244376701E+00-9.999986906E+00+
*       4.9878733119E+01               0
GRID*               5517               0-6.494972819E+00-9.999971367E+00+
*       4.8069748250E+01               0
GRID*               5518               0-5.303263510E+00-1.000000000E+01+
*       4.6516753074E+01               0
GRID*               5519               0-3.750267439E+00-1.000002863E+01+
*       4.5325045554E+01               0
GRID*               5520               0-1.941282083E+00-1.000001309E+01+
*       4.4575641851E+01               0
GRID*               5521               02.4270757523E-06-1.000000000E+01+
*       4.4320018768E+01               0
GRID*               5522               01.9412867757E+00-9.999986906E+00+
*       4.4575643109E+01               0
GRID*               5523               03.7502716435E+00-9.999971367E+00+
*       4.5325047982E+01               0
GRID*               5524               05.3032669315E+00-1.000000000E+01+
*       4.6516756495E+01               0
GRID*               5525               06.4949752472E+00-1.000002863E+01+
*       4.8069752455E+01               0
GRID*               5526               07.2443779593E+00-1.000001309E+01+
*       4.9878737812E+01               0
GRID*               5527               07.2443902414E+00-7.999990237E+00+
*       5.3761269294E+01               0
GRID*               5528               06.4949865432E+00-7.999973470E+00+
*       5.5570270681E+01               0
GRID*               5529               05.3030430325E+00-7.999974088E+00+
*       5.7123507710E+01               0
GRID*               5530               03.7501672881E+00-8.000018848E+00+
*       5.8315057087E+01               0
GRID*               5531               01.9413070810E+00-8.000015258E+00+
*       5.9064390655E+01               0
GRID*               5532               0-2.427077321E-06-8.000000000E+00+
*       5.9320018768E+01               0
GRID*               5533               0-1.941249221E+00-7.999990237E+00+
*       5.9064411332E+01               0
GRID*               5534               0-3.750249855E+00-7.999973470E+00+
*       5.8315005419E+01               0
GRID*               5535               0-5.303488458E+00-7.999974088E+00+
*       5.7123062779E+01               0
GRID*               5536               0-6.495038196E+00-8.000018848E+00+
*       5.5570188104E+01               0
GRID*               5537               0-7.244369606E+00-8.000015257E+00+
*       5.3761327168E+01               0
GRID*               5538               0-7.500000000E+00-8.000000000E+00+
*       5.1820017729E+01               0
GRID*               5539               0-7.244389972E+00-7.999990237E+00+
*       4.9878771041E+01               0
GRID*               5540               0-6.494986320E+00-7.999973470E+00+
*       4.8069769734E+01               0
GRID*               5541               0-5.303042670E+00-7.999974087E+00+
*       4.6516532152E+01               0
GRID*               5542               0-3.750167569E+00-8.000018848E+00+
*       4.5324982855E+01               0
GRID*               5543               0-1.941306723E+00-8.000015258E+00+
*       4.4575650487E+01               0
GRID*               5544               02.4270757414E-06-8.000000000E+00+
*       4.4320018768E+01               0
GRID*               5545               01.9412488600E+00-7.999990237E+00+
*       4.4575629820E+01               0
GRID*               5546               03.7502501542E+00-7.999973471E+00+
*       4.5325034491E+01               0
GRID*               5547               05.3034877688E+00-7.999974087E+00+
*       4.6516977415E+01               0
GRID*               5548               06.4950379905E+00-8.000018848E+00+
*       4.8069852299E+01               0
GRID*               5549               07.2443693347E+00-8.000015257E+00+
*       4.9878713168E+01               0
GRID*               5550               07.2444044246E+00-5.999993798E+00+
*       5.3761228763E+01               0
GRID*               5551               06.4950349614E+00-5.999981021E+00+
*       5.5570193593E+01               0
GRID*               5552               05.3030315508E+00-5.999972748E+00+
*       5.7123519179E+01               0
GRID*               5553               03.7498684555E+00-5.999989566E+00+
*       5.8315244863E+01               0
GRID*               5554               01.9412989188E+00-6.000014538E+00+
*       5.9064393517E+01               0
GRID*               5555               0-2.427077319E-06-6.000000000E+00+
*       5.9320018768E+01               0
GRID*               5556               0-1.941208699E+00-5.999993797E+00+
*       5.9064425542E+01               0
GRID*               5557               0-3.750172777E+00-5.999981021E+00+
*       5.8315053852E+01               0
GRID*               5558               0-5.303499941E+00-5.999972748E+00+
*       5.7123051309E+01               0
GRID*               5559               0-6.495225914E+00-5.999989566E+00+
*       5.5569889233E+01               0
GRID*               5560               0-7.244372462E+00-6.000014538E+00+
*       5.3761319005E+01               0
GRID*               5561               0-7.500000000E+00-6.000000000E+00+
*       5.1820017729E+01               0
GRID*               5562               0-7.244404157E+00-5.999993798E+00+
*       4.9878811572E+01               0
GRID*               5563               0-6.495034755E+00-5.999981021E+00+
*       4.8069846810E+01               0
GRID*               5564               0-5.303031196E+00-5.999972748E+00+
*       4.6516520673E+01               0
GRID*               5565               0-3.749868662E+00-5.999989567E+00+
*       4.5324795199E+01               0
GRID*               5566               0-1.941298561E+00-6.000014538E+00+
*       4.4575647626E+01               0
GRID*               5567               02.4270757240E-06-6.000000000E+00+
*       4.4320018768E+01               0
GRID*               5568               01.9412083355E+00-5.999993797E+00+
*       4.4575615616E+01               0
GRID*               5569               03.7501730568E+00-5.999981021E+00+
*       4.5324986088E+01               0
GRID*               5570               05.3034992419E+00-5.999972748E+00+
*       4.6516988892E+01               0
GRID*               5571               06.4952257760E+00-5.999989566E+00+
*       4.8070151125E+01               0
GRID*               5572               07.2443721916E+00-6.000014538E+00+
*       4.9878721331E+01               0
GRID*               5573               07.2444169508E+00-3.999996943E+00+
*       5.3761192967E+01               0
GRID*               5574               06.4950919903E+00-3.999989914E+00+
*       5.5570102796E+01               0
GRID*               5575               05.3031171155E+00-3.999982788E+00+
*       5.7123433710E+01               0
GRID*               5576               03.7497932660E+00-3.999982195E+00+
*       5.8315292110E+01               0
GRID*               5577               01.9412074143E+00-4.000006492E+00+
*       5.9064425605E+01               0
GRID*               5578               0-2.427077314E-06-4.000000000E+00+
*       5.9320018768E+01               0
GRID*               5579               0-1.941172911E+00-3.999996943E+00+
*       5.9064438092E+01               0
GRID*               5580               0-3.750081991E+00-3.999989915E+00+
*       5.8315110899E+01               0
GRID*               5581               0-5.303414376E+00-3.999982788E+00+
*       5.7123136778E+01               0
GRID*               5582               0-6.495273146E+00-3.999982195E+00+
*       5.5569814035E+01               0
GRID*               5583               0-7.244404489E+00-4.000006492E+00+
*       5.3761227482E+01               0
GRID*               5584               0-7.500000000E+00-4.000000000E+00+
*       5.1820017729E+01               0
GRID*               5585               0-7.244416684E+00-3.999996943E+00+
*       4.9878847368E+01               0
GRID*               5586               0-6.495091805E+00-3.999989915E+00+
*       4.8069937594E+01               0
GRID*               5587               0-5.303116697E+00-3.999982788E+00+
*       4.6516606206E+01               0
GRID*               5588               0-3.749793453E+00-3.999982195E+00+
*       4.5324747982E+01               0
GRID*               5589               0-1.941207052E+00-4.000006492E+00+
*       4.4575615553E+01               0
GRID*               5590               02.4270757289E-06-4.000000000E+00+
*       4.4320018768E+01               0
GRID*               5591               01.9411725452E+00-3.999996943E+00+
*       4.4575603072E+01               0
GRID*               5592               03.7500822485E+00-3.999989915E+00+
*       4.5324929078E+01               0
GRID*               5593               05.3034137405E+00-3.999982788E+00+
*       4.6516903359E+01               0
GRID*               5594               06.4952730244E+00-3.999982195E+00+
*       4.8070226312E+01               0
GRID*               5595               07.2444042209E+00-4.000006492E+00+
*       4.9878812853E+01               0
GRID*               5596               07.2444257671E+00-1.999999160E+00+
*       5.3761167773E+01               0
GRID*               5597               06.4951379776E+00-1.999997088E+00+
*       5.5570029578E+01               0
GRID*               5598               05.3032171509E+00-1.999994518E+00+
*       5.7123333786E+01               0
GRID*               5599               03.7498980502E+00-1.999992460E+00+
*       5.8315226267E+01               0
GRID*               5600               01.9410674065E+00-1.999994180E+00+
*       5.9064474702E+01               0
GRID*               5601               0-2.427077309E-06-2.000000000E+00+
*       5.9320018768E+01               0
GRID*               5602               0-1.941147722E+00-1.999999160E+00+
*       5.9064446925E+01               0
GRID*               5603               0-3.750008783E+00-1.999997088E+00+
*       5.8315156900E+01               0
GRID*               5604               0-5.303314341E+00-1.999994518E+00+
*       5.7123236701E+01               0
GRID*               5605               0-6.495207323E+00-1.999992460E+00+
*       5.5569918832E+01               0
GRID*               5606               0-7.244453494E+00-1.999994181E+00+
*       5.3761087442E+01               0
GRID*               5607               0-7.500000000E+00-2.000000000E+00+
*       5.1820017729E+01               0
GRID*               5608               0-7.244425501E+00-1.999999160E+00+
*       4.9878872561E+01               0
GRID*               5609               0-6.495137809E+00-1.999997088E+00+
*       4.8070010800E+01               0
GRID*               5610               0-5.303216659E+00-1.999994518E+00+
*       4.6516706205E+01               0
GRID*               5611               0-3.749898263E+00-1.999992460E+00+
*       4.5324813783E+01               0
GRID*               5612               0-1.941067036E+00-1.999994180E+00+
*       4.4575566479E+01               0
GRID*               5613               02.4270757208E-06-2.000000000E+00+
*       4.4320018768E+01               0
GRID*               5614               01.9411473553E+00-1.999999160E+00+
*       4.4575594243E+01               0
GRID*               5615               03.7500090222E+00-1.999997088E+00+
*       4.5324883106E+01               0
GRID*               5616               05.3033137792E+00-1.999994518E+00+
*       4.6516803360E+01               0
GRID*               5617               06.4952071783E+00-1.999992460E+00+
*       4.8070121530E+01               0
GRID*               5618               07.2444532296E+00-1.999994180E+00+
*       4.9878952893E+01               0
GRID*               3306               03.4607719175E+00-2.000000000E+01+
*       5.6337963946E+01               0
GRID*               3307               03.2260993502E+00-2.000000000E+01+
*       5.4374372756E+01               0
GRID*               3308               03.0133625997E+00-2.000000000E+01+
*       5.2421108308E+01               0
GRID*               3309               02.7672939796E+00-2.000000000E+01+
*       5.0459248280E+01               0
GRID*               3310               02.4776957822E+00-2.000000000E+01+
*       4.8519324132E+01               0
GRID*               3311               02.1862508551E+00-2.000000000E+01+
*       4.6564073865E+01               0
GRID*               3312               04.8568928141E+00-2.000000000E+01+
*       5.3164198314E+01               0
GRID*               3313               06.1173737442E+00-2.000000000E+01+
*       5.2154570067E+01               0
GRID*               3314               05.0527188161E+00-2.000000000E+01+
*       5.5061088322E+01               0
GRID*               3315               05.8213240939E+00-2.000000000E+01+
*       4.9912413313E+01               0
GRID*               3316               04.3550393154E+00-2.000000000E+01+
*       4.9264697051E+01               0
GRID*               3317               04.0493629853E+00-2.000000000E+01+
*       4.7382840396E+01               0
GRID*               3318               04.7476551797E+00-2.000000000E+01+
*       5.1195085624E+01               0
GRID*               3319               06.2928024787E+00-2.000000000E+01+
*       5.0991305160E+01               0
GRID*               3320               0-5.642879601E+00-2.000000000E+01+
*       5.2561834890E+01               0
GRID*               3321               0-3.825026214E+00-2.000000000E+01+
*       5.3344244689E+01               0
GRID*               3322               0-2.026070895E+00-2.000000000E+01+
*       5.4133072540E+01               0
GRID*               3323               0-2.027360681E-01-2.000000000E+01+
*       5.4892489552E+01               0
GRID*               3324               01.6230039720E+00-2.000000000E+01+
*       5.5608377652E+01               0
GRID*               3325               0-1.259427005E+00-2.000000000E+01+
*       5.7814480300E+01               0
GRID*               3326               03.6215986854E-02-2.000000000E+01+
*       5.6866647616E+01               0
GRID*               3327               01.8190845504E+00-2.000000000E+01+
*       5.7543311565E+01               0
GRID*               3328               0-3.592987075E+00-2.000000000E+01+
*       5.5356391787E+01               0
GRID*               3329               0-3.348987832E+00-2.000000000E+01+
*       5.6950925731E+01               0
GRID*               3330               0-5.333066210E+00-2.000000000E+01+
*       5.4577673029E+01               0
GRID*               3331               0-1.832166323E+00-2.000000000E+01+
*       5.6243726060E+01               0
GRID*               3332               0-2.428976031E+00-2.000000000E+01+
*       5.7683988951E+01               0
GRID*               3333               0-2.266436725E+00-2.000000000E+01+
*       5.2127001114E+01               0
GRID*               3334               0-6.920967423E-01-2.000000000E+01+
*       5.0906633153E+01               0
GRID*               3335               08.9312536823E-01-2.000000000E+01+
*       4.9704461577E+01               0
GRID*               3336               0-4.409052685E-01-2.000000000E+01+
*       5.2895951868E+01               0
GRID*               3337               01.1555992302E+00-2.000000000E+01+
*       5.1671708644E+01               0
GRID*               3338               01.3965069743E+00-2.000000000E+01+
*       5.3644533214E+01               0
GRID*               3339               0-4.086170382E+00-2.000000000E+01+
*       5.1339548859E+01               0
GRID*               3340               0-2.548156582E+00-2.000000000E+01+
*       5.0113614724E+01               0
GRID*               3341               0-9.776607477E-01-2.000000000E+01+
*       4.8910285596E+01               0
GRID*               3342               06.0219887727E-01-2.000000000E+01+
*       4.7744886028E+01               0
GRID*               3343               0-4.560166604E+00-2.000000000E+01+
*       4.7732524752E+01               0
GRID*               3344               0-4.384486286E+00-2.000000000E+01+
*       4.9330969498E+01               0
GRID*               3345               0-5.864427246E+00-2.000000000E+01+
*       5.0536259435E+01               0
GRID*               3346               0-1.261210820E+00-2.000000000E+01+
*       4.6940746146E+01               0
GRID*               3347               0-2.767135990E+00-2.000000000E+01+
*       4.6354250154E+01               0
GRID*               3348               02.8231677491E-01-2.000000000E+01+
*       4.5822810910E+01               0
GRID*               3349               0-2.909679475E+00-2.000000000E+01+
*       4.8022975818E+01               0
GRID*               3350               0-3.862288998E+00-2.000000000E+01+
*       4.6784596710E+01               0
GRID*                  1               06.8444077924E-016.7669788877E+00+
*       5.0771779551E+01               0
GRID*                  2               01.1589561462E-018.7062427730E+00+
*       5.0417192176E+01               0
GRID*                  3               02.7583176499E+006.9652219204E+00+
*       4.9853306650E+01               0
GRID*                  4               08.5177174212E-018.5570897406E+00+
*       4.8217988286E+01               0
GRID*                  5               0-1.045299019E+006.1047360728E+00+
*       4.8614082168E+01               0
GRID*                  6               0-2.151564162E+007.9926352162E+00+
*       5.1163076639E+01               0
GRID*                  7               09.3680710789E-015.2732616117E+00+
*       4.8692716114E+01               0
GRID*                  8               03.0458065964E+006.1627843894E+00+
*       5.2138320114E+01               0
GRID*                  9               03.8504413782E-013.6731752068E+00+
*       5.1810525779E+01               0
GRID*                 10               01.0563312205E+015.9122354634E+00+
*       4.9295396754E+01               0
GRID*                 11               01.1402567939E+015.4643152712E+00+
*       5.0829343874E+01               0
GRID*                 12               08.5549665945E+006.1046209511E+00+
*       5.1140846071E+01               0
GRID*                 13               09.3572119691E+004.0333795439E+00+
*       5.0796747656E+01               0
GRID*                 14               01.3693166031E+016.2964751534E+00+
*       4.9337560700E+01               0
GRID*                 15               01.0348720845E+018.0658702447E+00+
*       4.9772255407E+01               0
GRID*                 16               01.1797572805E+016.0347602144E+00+
*       4.6909792060E+01               0
GRID*                 17               01.3370112281E+014.0900961477E+00+
*       4.8283112204E+01               0
GRID*                 18               01.0316140630E+013.5612171715E+00+
*       4.8681880574E+01               0
GRID*                 19               01.0126720931E+014.6243209552E+00+
*       4.6326170320E+01               0
GRID*                 20               01.5922003431E+015.3739331678E+00+
*       1.1349428962E+01               0
GRID*                 21               01.4740806529E+014.6432426317E+00+
*       9.6671112532E+00               0
GRID*                 22               01.4860566563E+013.2005142777E+00+
*       1.2421975131E+01               0
GRID*                 23               01.3675914329E+015.4411133091E+00+
*       1.1813059780E+01               0
GRID*                 24               01.0097569005E+017.4540554699E+00+
*       4.6934436798E+01               0
GRID*                 25               08.4712134989E+005.0743567427E+00+
*       4.8306435765E+01               0
GRID*                 26               08.9262472152E+003.3571237552E+00+
*       4.7564999377E+01               0
GRID*                 27               04.7465767875E+005.7869406271E+00+
*       3.9238171303E+01               0
GRID*                 28               04.8283506817E+002.3083887334E+00+
*       3.8465668003E+01               0
GRID*                 29               04.0677039709E+004.4670967457E+00+
*       4.0645842866E+01               0
GRID*                 30               02.9388952595E+002.7035525495E+00+
*       3.8935495421E+01               0
GRID*                 31               02.7450229430E+006.5716551225E+00+
*       3.9493847503E+01               0
GRID*                 32               04.1027170629E+007.7653751214E+00+
*       4.1680256511E+01               0
GRID*                 33               0-5.474686389E-015.3854588223E+00+
*       5.6371526585E+00               0
GRID*                 34               0-1.120578357E+006.4471406073E+00+
*       1.6305829796E+00               0
GRID*                 35               01.5340855598E+006.2934953123E+00+
*       3.5868214475E+00               0
GRID*                 36               0-1.209100701E-015.1285947939E+00+
*       1.6618620466E+00               0
GRID*                 37               06.7129193450E+004.3945180714E+00+
*       3.8700388567E+01               0
GRID*                 38               04.3302876592E+008.3317694961E+00+
*       3.9267597564E+01               0
GRID*                 39               06.4588135903E+006.9474303281E+00+
*       3.9557751646E+01               0
GRID*                 40               03.8564659024E+004.6573300948E+00+
*       3.7351979558E+01               0
GRID*                 41               03.1154586001E+007.7705736893E+00+
*       3.7849808514E+01               0
GRID*                 42               09.5109716450E+005.7357253361E+00+
*       1.9599244577E+01               0
GRID*                 43               09.2572427748E+009.4705229476E+00+
*       1.9037640041E+01               0
GRID*                 44               01.1657138688E+018.3429970772E+00+
*       1.9737040236E+01               0
GRID*                 45               08.8465737414E+006.2800077229E+00+
*       1.7495461784E+01               0
GRID*                 46               07.3065416253E+008.3367254776E+00+
*       1.7756441298E+01               0
GRID*                 47               08.9131969118E+001.1214103367E+01+
*       1.6770836546E+01               0
GRID*                 48               09.3395842607E+007.8685608563E+00+
*       1.5129289316E+01               0
GRID*                 49               01.0833756565E+018.5964434428E+00+
*       1.7068489329E+01               0
GRID*                 50               01.2037843502E+011.0733951507E+01+
*       1.6834774626E+01               0
GRID*                 51               01.0754166463E+011.0565767966E+01+
*       2.1556536852E+01               0
GRID*                 52               09.0370942063E+007.1664120576E+00+
*       2.2079228730E+01               0
GRID*                 53               01.1649038320E+011.1553530582E+01+
*       1.9543769258E+01               0
GRID*                 54               04.2871384354E+008.4786985999E+00+
*       6.1569565366E+00               0
GRID*                 55               01.3739800058E+008.2195543870E+00+
*       6.0337257095E+00               0
GRID*                 56               03.3762520596E+006.6821439014E+00+
*       4.6735711144E+00               0
GRID*                 57               01.9515035253E+007.4580170970E+00+
*       8.0173520715E+00               0
GRID*                 58               05.9932599565E+007.0234179828E+00+
*       5.0092394593E+00               0
GRID*                 59               04.9226603704E+008.8438330536E+00+
*       3.0104700836E+00               0
GRID*                 60               0-2.925208141E+006.0663984605E+00+
*       6.5457653002E+00               0
GRID*                 61               0-2.070244213E+009.4161913432E+00+
*       6.6457915695E+00               0
GRID*                 62               0-3.850232731E+007.6218006781E+00+
*       8.0145964821E+00               0
GRID*                 63               0-8.332912512E-017.4334560586E+00+
*       7.4494726503E+00               0
GRID*                 64               0-2.230871352E+006.6839902518E+00+
*       5.1316786348E+00               0
GRID*                 65               0-3.656859146E+009.4377713332E+00+
*       5.3026509303E+00               0
GRID*                 66               09.6706010245E+005.1489361151E+00+
*       6.0656207851E+01               0
GRID*                 67               06.9091683650E+007.0046941102E+00+
*       6.0108161940E+01               0
GRID*                 68               08.7991177514E+004.7103717969E+00+
*       5.8744354153E+01               0
GRID*                 69               06.7810770369E+004.0930900598E+00+
*       6.0222530982E+01               0
GRID*                 70               0-3.678197954E+008.0334548682E+00+
*       3.1335956348E+00               0
GRID*                 71               0-1.929087501E+004.9446040163E+00+
*       3.6330680565E+00               0
GRID*                 72               0-3.766547010E+005.1930666667E+00+
*       3.4965201778E+00               0
GRID*                 73               0-5.024568010E+006.7443395323E+00+
*       5.1483496518E+00               0
GRID*                 74               01.3247184317E+016.4764311720E+00+
*       3.3103767717E+01               0
GRID*                 75               01.2327861549E+015.9694271109E+00+
*       3.0281003617E+01               0
GRID*                 76               01.1392456068E+017.2129460815E+00+
*       3.2107243835E+01               0
GRID*                 77               01.3928491884E+017.7061254894E+00+
*       3.1629494556E+01               0
GRID*                 78               01.4897487318E+014.7054634975E+00+
*       3.1555855370E+01               0
GRID*                 79               01.1505795223E+014.1776433198E+00+
*       3.1959803520E+01               0
GRID*                 80               01.3246559364E+014.8636308259E+00+
*       3.4588271281E+01               0
GRID*                 81               01.1807071536E+017.4388996055E+00+
*       3.4690326108E+01               0
GRID*                 82               01.0651969113E+014.7366676159E+00+
*       3.3342787336E+01               0
GRID*                 83               01.9979139777E+001.3802034601E+00+
*       1.6610460363E+01               0
GRID*                 84               08.7599544849E-013.5704549719E+00+
*       1.4973295045E+01               0
GRID*                 85               02.9688123058E+002.1098249661E+00+
*       1.5518546029E+01               0
GRID*                 86               02.3664574509E+001.5019376724E+00+
*       1.4210675985E+01               0
GRID*                 87               01.4461918360E+017.8387107411E+00+
*       3.5143482376E+01               0
GRID*                 88               01.6146939928E+016.9418456815E+00+
*       3.2062415826E+01               0
GRID*                 89               0-1.627934358E+015.8814066878E+00+
*       8.8261454106E+00               0
GRID*                 90               0-1.752057263E+016.4345409422E+00+
*       1.0767442740E+01               0
GRID*                 91               0-1.611425314E+017.8998931430E+00+
*       1.0322751526E+01               0
GRID*                 92               0-1.835147616E+017.4548688825E+00+
*       9.0218834014E+00               0
GRID*                 93               0-1.713019223E+014.5982000464E+00+
*       7.6229595231E+00               0
GRID*                 94               0-1.583698671E+017.7400223611E+00+
*       7.3214064629E+00               0
GRID*                 95               0-1.948337103E+016.9969686330E+00+
*       6.0262698724E+00               0
GRID*                 96               0-1.375276981E+017.1568135041E+00+
*       9.8730612049E+00               0
GRID*                 97               0-1.625222672E+014.5387485072E+00+
*       9.9140141527E+00               0
GRID*                 98               0-1.562692376E+014.2638894809E+00+
*       7.9908894723E+00               0
GRID*                 99               0-2.382348467E+019.4255065250E+00+
*       8.7920241411E+00               0
GRID*                100               0-2.164590706E+019.6726610375E+00+
*       6.2902861694E+00               0
GRID*                101               0-2.293240530E+011.1917319127E+01+
*       6.4841056334E+00               0
GRID*                102               0-2.214642932E+011.1065187088E+01+
*       8.2788261248E+00               0
GRID*                103               01.5508819703E+011.3691538200E+00+
*       3.5555410945E+01               0
GRID*                104               01.4458458937E+011.4109389845E+00+
*       3.8158821213E+01               0
GRID*                105               01.3303977106E+011.7067091605E+00+
*       3.7209805554E+01               0
GRID*                106               0-2.121147045E+018.0798029864E+00+
*       8.2045373980E+00               0
GRID*                107               0-2.406868318E+018.1661253834E+00+
*       7.1020436351E+00               0
GRID*                108               0-2.170982209E+017.9830587479E+00+
*       1.0211579002E+01               0
GRID*                109               0-2.302500853E+011.0820595323E+01+
*       1.1215143782E+01               0
GRID*                110               06.4134474221E+007.4686078320E+00+
*       3.2989501966E+01               0
GRID*                111               03.0585264530E+007.8736222011E+00+
*       3.3121684083E+01               0
GRID*                112               04.1602695028E+004.7982639479E+00+
*       3.2222944619E+01               0
GRID*                113               03.7979390339E+005.4635103361E+00+
*       3.4867373898E+01               0
GRID*                114               04.0429279489E+008.0320242053E+00+
*       2.9531929959E+01               0
GRID*                115               05.5089339116E+004.7474711724E+00+
*       3.0831266418E+01               0
GRID*                116               05.2311078098E+007.8265666047E+00+
*       3.5273378642E+01               0
GRID*                117               07.5619329248E+005.7133139593E+00+
*       3.1245246432E+01               0
GRID*                118               09.7614881054E+007.2765436467E+00+
*       3.3562233561E+01               0
GRID*                119               08.7482741552E+005.3329601670E+00+
*       3.3591563857E+01               0
GRID*                120               05.8940986247E+001.0245096629E+01+
*       3.3019251944E+01               0
GRID*                121               04.4905730388E+001.0475523245E+01+
*       3.1741440118E+01               0
GRID*                122               06.8206497760E+007.5655366672E+00+
*       2.9713027264E+01               0
GRID*                123               08.1697629312E+001.0351582599E+01+
*       3.2857574501E+01               0
GRID*                124               07.9181748172E+008.0788286741E+00+
*       3.5366495322E+01               0
GRID*                125               06.2385437974E+004.1297257188E+00+
*       3.3928173505E+01               0
GRID*                126               0-8.599562036E-015.7998482658E+00+
*       5.3285956760E+01               0
GRID*                127               04.2114285009E-014.8359407361E+00+
*       5.5308786481E+01               0
GRID*                128               02.0300089179E+009.9548184337E+00+
*       4.9961324528E+01               0
GRID*                129               02.0518901099E+008.4392868431E+00+
*       5.2397882523E+01               0
GRID*                130               0-9.213554745E-019.4952438026E+00+
*       5.2179825327E+01               0
GRID*                131               09.3408797813E-011.1003114239E+01+
*       5.2571058979E+01               0
GRID*                132               02.0143651651E+009.3544092588E+00+
*       5.4185013483E+01               0
GRID*                133               0-2.057018101E+008.4035633700E+00+
*       4.9629641556E+01               0
GRID*                134               0-1.740650410E+001.0851155599E+01+
*       5.0297628917E+01               0
GRID*                135               0-7.819281775E-011.0179088948E+01+
*       4.8224450248E+01               0
GRID*                136               02.1506274114E+007.7423713957E+00+
*       2.1299889301E+01               0
GRID*                137               0-2.902504583E-017.0286609279E+00+
*       2.3011667252E+01               0
GRID*                138               09.2529877683E-018.0831415380E+00+
*       2.4496442896E+01               0
GRID*                139               0-1.046191932E-011.0455882058E+01+
*       2.2090680228E+01               0
GRID*                140               09.0196688908E+001.0517951246E+01+
*       5.9897398365E+01               0
GRID*                141               01.1001526520E+019.7247547551E+00+
*       5.9801267064E+01               0
GRID*                142               09.6282429867E-014.6320867158E+00+
*       2.4448466652E+01               0
GRID*                143               0-8.814747289E-014.5131352596E+00+
*       2.4589388860E+01               0
GRID*                144               0-1.631255187E+008.5122434352E+00+
*       2.1790994406E+01               0
GRID*                145               0-4.856425504E-011.0032252160E+01+
*       2.4026324806E+01               0
GRID*                146               0-2.649148305E+006.1909879670E+00+
*       2.1673103656E+01               0
GRID*                147               0-1.301572594E+004.1788810575E+00+
*       2.2505048018E+01               0
GRID*                148               0-2.183098051E+007.6020776519E+00+
*       2.3817853468E+01               0
GRID*                149               0-7.165499952E-016.9583191115E+00+
*       2.0215730110E+01               0
GRID*                150               0-1.511911637E+019.4147739500E+00+
*       4.0801570849E+01               0
GRID*                151               0-1.578485504E+019.1820852074E+00+
*       4.3153418113E+01               0
GRID*                152               0-1.363086012E+011.1712428714E+01+
*       4.3141133815E+01               0
GRID*                153               0-1.571443943E+011.1876830095E+01+
*       4.2321712307E+01               0
GRID*                154               0-1.350715053E+011.0568603774E+01+
*       3.8178323961E+01               0
GRID*                155               0-1.358162600E+018.0384252324E+00+
*       3.8390542649E+01               0
GRID*                156               0-1.389254471E+011.0519796790E+01+
*       4.0405329422E+01               0
GRID*                157               0-1.558974066E+018.8495506326E+00+
*       3.8973151858E+01               0
GRID*                158               0-1.741789736E+011.0233577999E+01+
*       4.2069355193E+01               0
GRID*                159               0-1.708889110E+017.7140644781E+00+
*       4.1258242262E+01               0
GRID*                160               0-1.646988691E+011.1111564013E+01+
*       4.0373236549E+01               0
GRID*                161               0-1.566311382E+015.9169892207E+00+
*       3.9360756357E+01               0
GRID*                162               0-1.618398950E+011.0685631876E+01+
*       3.8525044264E+01               0
GRID*                163               0-1.777958662E+00-1.797766735E+01+
*       4.7124593952E+01               0
GRID*                164               0-6.719175062E+004.4378756842E+00+
*       4.3691114068E+01               0
GRID*                165               0-8.644725571E+006.9735131139E+00+
*       4.1254119652E+01               0
GRID*                166               0-9.019641217E+006.7379846261E+00+
*       4.4313621025E+01               0
GRID*                167               0-6.829051616E+007.3215741704E+00+
*       4.2549724891E+01               0
GRID*                168               0-9.803041013E+009.7667850510E+00+
*       4.0646999048E+01               0
GRID*                169               0-8.639094550E+008.6539239764E+00+
*       3.8524275744E+01               0
GRID*                170               0-7.110109982E+009.9478210926E+00+
*       3.8869383223E+01               0
GRID*                171               0-1.104307213E+016.9761689806E+00+
*       3.9208761295E+01               0
GRID*                172               0-6.183974866E+006.8776611027E+00+
*       3.9514730720E+01               0
GRID*                173               0-6.649535128E+004.2575706535E+00+
*       4.0831563665E+01               0
GRID*                174               01.1267571496E+011.3670120468E+01+
*       2.4759505555E+01               0
GRID*                175               09.8333824677E+001.0337769317E+01+
*       2.3547630210E+01               0
GRID*                176               09.6803240046E+001.3371522238E+01+
*       2.6131784512E+01               0
GRID*                177               08.3350410482E+001.3477371104E+01+
*       2.4262330964E+01               0
GRID*                178               02.6993087142E+005.8115791134E+00+
*       4.6702485480E+01               0
GRID*                179               01.8659875743E+004.5078857544E+00+
*       4.5039631182E+01               0
GRID*                180               01.0843572498E+007.0343683768E+00+
*       4.5676681415E+01               0
GRID*                181               04.0092548083E+007.4870286106E+00+
*       4.7485034699E+01               0
GRID*                182               03.7193571009E+007.5684378865E+00+
*       4.4368781254E+01               0
GRID*                183               01.5797695208E+006.9517301252E+00+
*       4.3302537076E+01               0
GRID*                184               03.6637211914E+004.9502546568E+00+
*       4.5457425083E+01               0
GRID*                185               01.9361104396E+003.1965409924E+00+
*       4.7022126247E+01               0
GRID*                186               0-2.301541279E+011.2747189175E+01+
*       2.1034061719E+01               0
GRID*                187               0-2.388894745E+011.1766625662E+01+
*       1.9205802420E+01               0
GRID*                188               0-2.298886625E+019.9095616830E+00+
*       2.0920809134E+01               0
GRID*                189               0-9.343678550E+008.4641561367E+00+
*       5.4878618981E+01               0
GRID*                190               0-1.037721715E+016.4339074799E+00+
*       5.3141408116E+01               0
GRID*                191               0-1.141895538E+016.7070454357E+00+
*       5.5313335329E+01               0
GRID*                192               0-1.102278069E+018.7946744425E+00+
*       5.2568792408E+01               0
GRID*                193               0-1.293885776E+016.9611798735E+00+
*       5.2923610668E+01               0
GRID*                194               0-1.073893808E+013.9918187077E+00+
*       5.4460534517E+01               0
GRID*                195               0-1.267024043E+014.7254485174E+00+
*       5.3380269689E+01               0
GRID*                196               0-8.909160407E+005.1000591006E+00+
*       5.0567042213E+01               0
GRID*                197               0-8.844759897E+007.2560118138E+00+
*       5.1881247045E+01               0
GRID*                198               0-8.933020530E+004.0524330401E+00+
*       5.2633779155E+01               0
GRID*                199               0-1.200056669E+018.4564661010E+00+
*       5.0257642190E+01               0
GRID*                200               0-1.095116421E+014.0412711738E+00+
*       5.1940757037E+01               0
GRID*                201               01.4169075300E+017.7452637937E+00+
*       4.7602301014E+01               0
GRID*                202               01.2519402638E+019.3160957009E+00+
*       4.8653731842E+01               0
GRID*                203               0-3.537178951E+00-1.619511525E+01+
*       4.8145010618E+01               0
GRID*                204               0-3.619602065E+00-1.788140827E+01+
*       5.0955789470E+01               0
GRID*                205               0-2.618198813E+00-1.505000635E+01+
*       5.0461588969E+01               0
GRID*                206               0-5.392458473E+00-1.702424914E+01+
*       5.0833136636E+01               0
GRID*                207               01.0862276206E+012.5913349265E+00+
*       5.0880061952E+01               0
GRID*                208               08.2542391470E+007.4511743324E+00+
*       4.8567068386E+01               0
GRID*                209               01.3300183423E+017.1221869160E+00+
*       5.1176470502E+01               0
GRID*                210               01.5821434528E+017.5929832131E+00+
*       5.0064437597E+01               0
GRID*                211               0-2.150961153E+011.3257355608E+01+
*       2.4639985939E+01               0
GRID*                212               01.1413286565E+018.6703285757E+00+
*       5.1782901391E+01               0
GRID*                213               08.1491126916E+001.3294522570E+01+
*       1.1074903519E+01               0
GRID*                214               01.0522615323E+011.2723460900E+01+
*       1.1024833700E+01               0
GRID*                215               08.3649651542E+001.0303264509E+01+
*       1.0254180316E+01               0
GRID*                216               01.0440797547E+011.2420658287E+01+
*       9.7604799527E+00               0
GRID*                217               02.0764851447E+017.5965764333E+00+
*       9.2786632308E+00               0
GRID*                218               02.2481260812E+019.2488160663E+00+
*       9.9437624950E+00               0
GRID*                219               02.1255260933E+018.5303966240E+00+
*       1.2079543996E+01               0
GRID*                220               02.2643334213E+016.2613277348E+00+
*       1.0202740179E+01               0
GRID*                221               02.0155700916E+011.0976396899E+01+
*       9.4862042448E+00               0
GRID*                222               02.1640500358E+019.2155442241E+00+
*       7.6403799956E+00               0
GRID*                223               01.9844512075E+011.0095339310E+01+
*       7.7469269828E+00               0
GRID*                224               02.0148441688E+015.6112256999E+00+
*       1.2144177500E+01               0
GRID*                225               02.2063756220E+014.9934704760E+00+
*       1.0155417015E+01               0
GRID*                226               0-2.255131134E+016.2113510385E+00+
*       2.4351049886E+01               0
GRID*                227               0-2.278938323E+018.3621337089E+00+
*       2.3632742934E+01               0
GRID*                228               01.9941795496E+017.3754517800E+00+
*       8.0036474085E+00               0
GRID*                229               02.2473125140E+017.1742999572E+00+
*       7.9349208945E+00               0
GRID*                230               02.0279580980E+014.4843152264E+00+
*       7.4960697821E+00               0
GRID*                231               02.2583107945E+013.9042899805E+00+
*       7.1603272434E+00               0
GRID*                232               02.1197785427E+015.9239648243E+00+
*       5.3580532314E+00               0
GRID*                233               0-1.228582565E+014.5213575140E+00+
*       1.6824954555E+01               0
GRID*                234               0-1.250406521E+017.8330808940E+00+
*       1.4204184580E+01               0
GRID*                235               0-1.524566824E+017.3467693491E+00+
*       1.5747142186E+01               0
GRID*                236               0-1.295161025E+017.0468228449E+00+
*       1.8514484889E+01               0
GRID*                237               0-1.803795554E+011.3049779264E+01+
*       2.6713104362E+01               0
GRID*                238               0-1.086507345E+014.7738169199E+00+
*       1.4036806750E+01               0
GRID*                239               0-1.345732236E+017.4850132674E+00+
*       1.2172172582E+01               0
GRID*                240               0-1.027962482E+018.2089377017E+00+
*       1.3412777866E+01               0
GRID*                241               0-1.031619546E+013.9835718403E+00+
*       1.7260746995E+01               0
GRID*                242               0-1.006451348E+011.8486852694E+00+
*       1.6772626256E+01               0
GRID*                243               0-9.368488039E+002.3514507549E+00+
*       1.9147575279E+01               0
GRID*                244               0-1.064244197E+011.8563752220E+00+
*       1.9171390594E+01               0
GRID*                245               0-1.163792374E+011.0842069481E+01+
*       1.4145655712E+01               0
GRID*                246               0-1.111092549E+017.8539905381E+00+
*       1.5930415599E+01               0
GRID*                247               0-1.335262177E+011.0639182645E+01+
*       1.5369272437E+01               0
GRID*                248               0-1.480815749E+014.1908936337E+00+
*       1.6968740107E+01               0
GRID*                249               01.3704833940E+016.7823853218E+00+
*       4.3037470642E+01               0
GRID*                250               01.2823442764E+014.9748076933E+00+
*       4.1115374612E+01               0
GRID*                251               01.2894787357E+018.7473348709E+00+
*       4.1695425322E+01               0
GRID*                252               01.4339958102E+017.6328447775E+00+
*       3.9533078673E+01               0
GRID*                253               02.2879049848E+011.1260748544E+01+
*       7.6291176559E+00               0
GRID*                254               02.4480383364E+019.2846389858E+00+
*       7.4649820873E+00               0
GRID*                255               02.3150616402E+011.1203777467E+01+
*       5.3547410446E+00               0
GRID*                256               02.4882491210E+011.0991766955E+01+
*       5.3789331358E+00               0
GRID*                257               01.0819745931E+016.9179316844E+00+
*       4.1949728003E+01               0
GRID*                258               01.2350217528E+018.6497305452E+00+
*       4.3614613980E+01               0
GRID*                259               06.0651931997E+00-9.820072018E+00+
*       5.1948669077E+01               0
GRID*                260               01.7205816409E+016.5606627885E+00+
*       4.4470642227E+01               0
GRID*                261               01.4751417566E+019.0383618994E+00+
*       4.5157293712E+01               0
GRID*                262               01.5730002883E+018.5333095254E+00+
*       4.2285876478E+01               0
GRID*                263               01.5612791620E+016.6392314298E+00+
*       4.0775641257E+01               0
GRID*                264               01.7649458686E+016.7629173505E+00+
*       4.2605078308E+01               0
GRID*                265               01.6013589932E+015.0897986550E+00+
*       4.2111617551E+01               0
GRID*                266               01.3554354714E+016.9257368220E+00+
*       4.5328769189E+01               0
GRID*                267               05.1566986100E+007.7515907480E+00+
*       5.3302286055E+01               0
GRID*                268               04.1883757882E+009.1615006855E+00+
*       5.0745534417E+01               0
GRID*                269               0-9.983627643E+004.1103988311E+00+
*       2.6125334650E+01               0
GRID*                270               0-1.229978801E+013.2992993819E+00+
*       2.7142070487E+01               0
GRID*                271               0-1.121079710E+012.4410478726E+00+
*       2.6576094218E+01               0
GRID*                272               0-9.612307243E+004.1509257271E+00+
*       2.8162983601E+01               0
GRID*                273               03.8316813567E+004.5051132505E+00+
*       5.4165990947E+01               0
GRID*                274               01.4296378131E+013.1249583177E+00+
*       3.9166211487E+01               0
GRID*                275               01.2346051989E+011.5490186076E+00+
*       3.8933748594E+01               0
GRID*                276               0-1.417765494E+015.0316914692E+00+
*       9.2951967535E+00               0
GRID*                277               0-1.236774953E+015.5069954613E+00+
*       7.2228634852E+00               0
GRID*                278               03.5023484359E+007.8481852383E+00+
*       5.4801306375E+01               0
GRID*                279               06.8068054856E+005.2887900331E+00+
*       5.2949339551E+01               0
GRID*                280               05.0134018295E+004.4457613944E+00+
*       5.0161092876E+01               0
GRID*                281               03.1163548124E+003.4445979155E+00+
*       4.9320560804E+01               0
GRID*                282               05.8051676719E+007.6387167577E+00+
*       4.9757366982E+01               0
GRID*                283               03.7216055264E+001.0738448125E+01+
*       5.3675362065E+01               0
GRID*                284               01.0376794096E+007.2803392432E+00+
*       5.5038782805E+01               0
GRID*                285               0-1.873999483E+00-7.725165892E-01+
*       5.3613560468E+01               0
GRID*                286               0-1.365800596E+001.0854633935E+00+
*       5.5862858822E+01               0
GRID*                287               0-2.344093475E+00-1.186426683E+00+
*       5.6713771013E+01               0
GRID*                288               06.7447843665E-016.5170501527E-01+
*       5.5089202678E+01               0
GRID*                289               0-2.731157800E-011.1456257703E+00+
*       5.3118783636E+01               0
GRID*                290               02.5266346542E+00-2.481531615E-01+
*       5.3754750394E+01               0
GRID*                291               01.1657355381E-01-6.953045351E-02+
*       5.1445426374E+01               0
GRID*                292               01.8324257138E+002.0922885303E+00+
*       5.3043667117E+01               0
GRID*                293               0-1.494901576E+003.0548685263E+00+
*       5.5129700095E+01               0
GRID*                294               06.5491470088E-01-2.767869189E+00+
*       5.2780827606E+01               0
GRID*                295               0-2.011857463E+002.0637386794E+00+
*       5.1959210615E+01               0
GRID*                296               0-3.658624413E+001.6904334949E+00+
*       5.4698796748E+01               0
GRID*                297               0-6.285112580E+008.6791928143E+00+
*       3.4170415220E+00               0
GRID*                298               0-5.822626646E+001.0378377293E+01+
*       5.4990534373E+00               0
GRID*                299               0-8.397313627E+001.0558798416E+01+
*       5.2284477097E+00               0
GRID*                300               0-8.567097041E+008.3865535476E+00+
*       6.1476273004E+00               0
GRID*                301               0-9.211720021E+004.9389991491E+00+
*       7.2618075611E+00               0
GRID*                302               0-9.251788864E+007.9565505785E+00+
*       8.6159604095E+00               0
GRID*                303               0-1.208647604E+018.0190031522E+00+
*       7.4988116897E+00               0
GRID*                304               0-6.230006325E+008.2338639649E+00+
*       7.5692612980E+00               0
GRID*                305               0-7.778289097E+005.6958292481E+00+
*       8.6092111177E+00               0
GRID*                306               0-1.073005887E+019.4072655222E+00+
*       5.5704284596E+00               0
GRID*                307               0-9.833666017E+001.2043077926E+01+
*       6.5936168608E+00               0
GRID*                308               0-7.897350505E+001.0689120347E+01+
*       7.3936364054E+00               0
GRID*                309               0-8.799267339E+008.2603280223E+00+
*       3.5536205973E+00               0
GRID*                310               0-1.005713748E+016.6041216238E+00+
*       5.2568933618E+00               0
GRID*                311               01.3759390640E+00-9.120031348E+00+
*       4.6028905086E+01               0
GRID*                312               0-6.126530231E-01-9.067438895E+00+
*       4.7700679359E+01               0
GRID*                313               01.0756276721E+011.0676671348E+01+
*       4.8992860730E+01               0
GRID*                314               09.9013685715E-01-3.954793470E+00+
*       4.5980785061E+01               0
GRID*                315               02.9316378350E+00-5.019978126E+00+
*       4.6634826921E+01               0
GRID*                316               02.7907566592E+00-2.219697828E+00+
*       4.6687695837E+01               0
GRID*                317               02.9543237211E+009.4857186752E+00+
*       5.7140686528E+01               0
GRID*                318               01.9883249635E+001.0782452440E+01+
*       5.5939145648E+01               0
GRID*                319               01.1656395955E+007.9005311690E+00+
*       5.8450585215E+01               0
GRID*                320               0-1.853513686E+019.9674784733E+00+
*       3.7474249739E+00               0
GRID*                321               0-1.938621245E+016.5511821142E+00+
*       3.3971213260E+00               0
GRID*                322               0-2.046780503E+019.6336207732E+00+
*       3.7875347618E+00               0
GRID*                323               0-2.048100222E+018.1010420429E+00+
*       1.8828082689E+00               0
GRID*                324               04.6953729398E+001.0459233170E+01+
*       5.6788853532E+01               0
GRID*                325               02.1031242326E+001.0543941325E+01+
*       5.9323529518E+01               0
GRID*                326               02.9111754030E+001.3328426602E+01+
*       5.7051268619E+01               0
GRID*                327               03.7647819207E+007.1120758495E+00+
*       5.6843890092E+01               0
GRID*                328               05.5720052880E+008.9030834839E+00+
*       5.8632292622E+01               0
GRID*                329               04.2065766378E+006.3433639009E+00+
*       5.8906696816E+01               0
GRID*                330               04.1245984207E+001.1936836156E+01+
*       5.5338822815E+01               0
GRID*                331               0-6.317219284E+009.1385607406E+00+
*       2.9798025913E+01               0
GRID*                332               0-8.895521481E+007.4794786342E+00+
*       2.8447337746E+01               0
GRID*                333               0-7.452265326E+008.2139498996E+00+
*       3.1237031506E+01               0
GRID*                334               0-8.977992705E+001.0096686049E+01+
*       3.0387470969E+01               0
GRID*                335               0-8.030565957E+001.0434951953E+01+
*       3.2484095933E+01               0
GRID*                336               0-5.231378063E+001.0321296184E+01+
*       3.1498025643E+01               0
GRID*                337               0-7.644559221E+001.0595396889E+01+
*       2.8154416232E+01               0
GRID*                338               0-6.215438880E+001.2784931723E+01+
*       2.8703054115E+01               0
GRID*                339               0-5.079652471E+001.0318414744E+01+
*       2.8305653331E+01               0
GRID*                340               0-7.251899493E+001.3112197149E+01+
*       3.0223953447E+01               0
GRID*                341               07.5355021734E+007.2932527821E+00+
*       1.4250838492E+01               0
GRID*                342               05.0289962270E+006.9043348974E+00+
*       1.2633954975E+01               0
GRID*                343               06.7489071982E+004.5488257128E+00+
*       1.4043969712E+01               0
GRID*                344               05.1124588925E+007.3865215560E+00+
*       1.4786419383E+01               0
GRID*                345               05.1154085538E+007.6260786632E+00+
*       1.6853628989E+01               0
GRID*                346               07.6926394595E+006.3719561480E+00+
*       1.6000425042E+01               0
GRID*                347               06.6884236942E+009.7497172012E+00+
*       1.5557041388E+01               0
GRID*                348               07.4718017345E+009.6156789852E+00+
*       1.3041064662E+01               0
GRID*                349               05.5472376992E+001.0912278014E+01+
*       1.3954693320E+01               0
GRID*                350               02.1707942741E+018.0386518036E+00+
*       2.0742195730E+01               0
GRID*                351               02.2407221477E+019.6118517807E+00+
*       2.3647268034E+01               0
GRID*                352               01.9366298809E+019.0610811001E+00+
*       2.1375025176E+01               0
GRID*                353               02.0406362336E+017.9620691960E+00+
*       2.4068237820E+01               0
GRID*                354               01.3697598443E+019.2588266300E+00+
*       1.7736671510E+01               0
GRID*                355               01.4800325950E+011.1747674250E+01+
*       1.6507305440E+01               0
GRID*                356               01.3204504127E+011.2038750774E+01+
*       1.8258606519E+01               0
GRID*                357               01.3353650666E+011.1476682219E+01+
*       2.0361114808E+01               0
GRID*                358               01.4454097760E+018.5457417727E+00+
*       1.9519725822E+01               0
GRID*                359               01.2766165326E+016.2481791302E+00+
*       1.8142264162E+01               0
GRID*                360               01.5645883796E+017.3931812047E+00+
*       1.7986701968E+01               0
GRID*                361               0-3.424539894E+001.9885979829E+00+
*       3.7936444831E+01               0
GRID*                362               0-2.804363386E+003.9216178505E+00+
*       3.7411509106E+01               0
GRID*                363               0-1.268735597E+001.5091799903E+00+
*       3.8236863886E+01               0
GRID*                364               0-1.579432327E+001.5187790267E+00+
*       3.5819690546E+01               0
GRID*                365               09.4153353341E+001.0432605525E+01+
*       4.7267046019E+01               0
GRID*                366               09.2164206203E+001.3054414993E+01+
*       4.7362015431E+01               0
GRID*                367               01.1589063061E+011.1320890368E+01+
*       4.6071229227E+01               0
GRID*                368               01.0145654255E+011.2652213818E+01+
*       4.5491656229E+01               0
GRID*                369               05.1777531453E+001.0398601929E+01+
*       1.8126461039E+01               0
GRID*                370               07.0371950193E+001.1057714078E+01+
*       1.9278814715E+01               0
GRID*                371               0-1.872545546E+014.9399623653E+00+
*       1.1359372816E+01               0
GRID*                372               0-1.855501264E+014.9953507879E+00+
*       9.4133022208E+00               0
GRID*                373               0-9.106194176E+001.3241669875E+01+
*       4.0977005313E+01               0
GRID*                374               0-1.016104365E+011.3011334817E+01+
*       3.9420918334E+01               0
GRID*                375               0-8.334554008E+001.2571560293E+01+
*       3.8795538723E+01               0
GRID*                376               0-1.711311656E+018.2244023506E+00+
*       1.2184598003E+01               0
GRID*                377               0-1.517169537E+015.4888970130E+00+
*       1.1221054981E+01               0
GRID*                378               0-1.884168082E+018.1524487994E+00+
*       1.0793339112E+01               0
GRID*                379               0-2.007922971E+016.0635212842E+00+
*       1.0124709478E+01               0
GRID*                380               0-1.674878089E+014.7298354629E+00+
*       1.2442444430E+01               0
GRID*                381               0-1.892080530E+017.2363889761E+00+
*       1.3259100346E+01               0
GRID*                382               0-3.817720128E+001.0809526635E+01+
*       7.6839087579E+00               0
GRID*                383               0-4.239070203E+001.2928844741E+01+
*       7.8065139504E+00               0
GRID*                384               0-4.597110677E+001.3025703773E+01+
*       6.0503690207E+00               0
GRID*                385               0-5.350945888E+001.0284845995E+01+
*       7.4683391094E+00               0
GRID*                386               0-1.856488923E-024.7210179796E+00+
*       1.9541539446E+01               0
GRID*                387               0-2.434864948E+004.4062680518E+00+
*       2.0027546090E+01               0
GRID*                388               0-7.116163788E+001.0471349522E+01+
*       4.2081781986E+01               0
GRID*                389               0-5.998629307E+001.3691886389E+01+
*       4.1548239852E+01               0
GRID*                390               0-6.231514704E+001.2675633684E+01+
*       3.9274259247E+01               0
GRID*                391               0-4.773712780E+007.4855936500E+00+
*       2.2432556982E+01               0
GRID*                392               0-3.814456842E+007.0674445021E+00+
*       2.0535830651E+01               0
GRID*                393               0-4.335058042E+004.0546674139E+00+
*       2.0920450151E+01               0
GRID*                394               0-3.619649691E+003.8313388663E+00+
*       2.2096153795E+01               0
GRID*                395               0-2.379745494E+002.1534735082E+00+
*       2.1426791923E+01               0
GRID*                396               0-6.889157280E+007.9421763810E+00+
*       4.4356821619E+01               0
GRID*                397               0-8.084002887E+005.0208412352E+00+
*       4.5173495043E+01               0
GRID*                398               0-6.061902799E+004.7662668063E+00+
*       4.5292532185E+01               0
GRID*                399               0-6.295496211E+006.5934975667E+00+
*       4.6755815538E+01               0
GRID*                400               0-8.556550727E+004.9941940071E+00+
*       4.8315838568E+01               0
GRID*                401               0-7.781640677E+007.6640346215E+00+
*       4.8746966206E+01               0
GRID*                402               0-9.695552166E+006.8129572228E+00+
*       4.6965180021E+01               0
GRID*                403               0-6.306826410E+005.2638240157E+00+
*       4.8564291934E+01               0
GRID*                404               0-4.671314316E+007.4025918615E+00+
*       4.5999504940E+01               0
GRID*                405               0-3.589688237E+006.9358705611E+00+
*       4.8486194729E+01               0
GRID*                406               0-5.556838872E+009.7053297492E+00+
*       4.7732497743E+01               0
GRID*                407               0-5.831475308E+007.3275370733E+00+
*       4.9726560657E+01               0
GRID*                408               0-4.054512047E+004.5073235708E+00+
*       4.6607581332E+01               0
GRID*                409               0-2.056268943E+011.0031359314E+01+
*       1.2240728999E+01               0
GRID*                410               0-2.105283847E+011.3389779431E+01+
*       1.1524733024E+01               0
GRID*                411               0-2.083061974E+011.1186349173E+01+
*       1.4947339325E+01               0
GRID*                412               0-1.986597200E+011.2991049401E+01+
*       1.3717343475E+01               0
GRID*                413               01.5455218882E+019.0602466244E+00+
*       7.6395429181E+00               0
GRID*                414               01.3344185530E+017.4770639497E+00+
*       8.6710561807E+00               0
GRID*                415               01.3990211955E+011.0262125664E+01+
*       9.4325863758E+00               0
GRID*                416               01.4368830326E+011.0724242271E+01+
*       7.4144729646E+00               0
GRID*                417               01.5949085928E+017.7308911154E+00+
*       1.0560319568E+01               0
GRID*                418               01.3986480635E+018.8690658815E+00+
*       5.4625465271E+00               0
GRID*                419               01.5072973494E+016.6093144573E+00+
*       6.7741650365E+00               0
GRID*                420               01.7414711726E+017.7981315738E+00+
*       8.2592663923E+00               0
GRID*                421               01.4209377430E+014.7125672890E+00+
*       3.9386812957E+01               0
GRID*                422               01.5253276426E+015.2436531295E+00+
*       3.7776405573E+01               0
GRID*                423               01.6811701618E+014.2668264881E+00+
*       3.8560740296E+01               0
GRID*                424               01.5975436108E+013.4250468415E+00+
*       4.0711878056E+01               0
GRID*                425               01.4476647796E+013.1215469181E+00+
*       4.2259682029E+01               0
GRID*                426               01.3364217878E+014.3857438625E+00+
*       3.6616584959E+01               0
GRID*                427               01.1418088842E+016.4805283870E+00+
*       3.8834674902E+01               0
GRID*                428               01.2542669884E+013.1828706403E+00+
*       3.9875401686E+01               0
GRID*                429               01.2153679015E+014.4064865893E+00+
*       3.7952739461E+01               0
GRID*                430               02.6654389066E+011.4434305455E+00+
*       4.8848859802E+00               0
GRID*                431               02.6266430199E+011.3775614297E+00+
*       7.1965754942E+00               0
GRID*                432               02.6670786769E+013.3295026598E+00+
*       6.0871387763E+00               0
GRID*                433               04.7285657880E-011.4082288508E+00+
*       4.9659798753E+01               0
GRID*                434               0-4.391004965E+007.3381410410E+00+
*       4.3148507026E+01               0
GRID*                435               0-4.284462575E+007.5725979566E+00+
*       4.0267324413E+01               0
GRID*                436               0-4.860204289E+001.0297127003E+01+
*       4.2326108812E+01               0
GRID*                437               0-2.761003816E+008.1399290078E+00+
*       4.1862772775E+01               0
GRID*                438               0-1.638268155E+007.3218852967E+00+
*       4.4150481490E+01               0
GRID*                439               0-3.424450383E+009.9187931277E+00+
*       4.4432697670E+01               0
GRID*                440               0-9.921921362E+001.3157662410E+01+
*       3.4322337320E+01               0
GRID*                441               0-3.314029170E+005.1157759086E+00+
*       4.2571931872E+01               0
GRID*                442               03.8996566163E+001.8847405867E+00+
*       3.6498220069E+01               0
GRID*                443               02.5199243760E+003.3633605962E+00+
*       3.5476668904E+01               0
GRID*                444               04.8465776379E+002.3665484050E+00+
*       3.4968499427E+01               0
GRID*                445               0-8.045314498E+007.4064044833E+00+
*       1.7203898710E+01               0
GRID*                446               0-1.092226305E+011.0483207180E+01+
*       1.7540077594E+01               0
GRID*                447               0-1.027742372E+016.6527107876E+00+
*       1.9295240030E+01               0
GRID*                448               0-8.454664395E+001.0148134622E+01+
*       1.8691559615E+01               0
GRID*                449               0-9.617817262E+001.0266347830E+01+
*       1.5394469490E+01               0
GRID*                450               0-7.260552085E+001.0341187223E+01+
*       1.6470069214E+01               0
GRID*                451               0-8.866164376E+001.1811449555E+01+
*       1.7148336525E+01               0
GRID*                452               02.7173514224E-011.0237728767E+01+
*       1.9916637224E+01               0
GRID*                453               01.9844280612E+001.0334470189E+01+
*       2.4049330924E+01               0
GRID*                454               03.4773496783E+007.1053666002E+00+
*       2.3322573415E+01               0
GRID*                455               05.9470821897E+007.8251844811E+00+
*       2.2620479383E+01               0
GRID*                456               03.7936876889E+001.0169226198E+01+
*       2.3716987557E+01               0
GRID*                457               03.9232674509E+005.0666082764E+00+
*       2.1607124061E+01               0
GRID*                458               04.6379918580E+007.3767802340E+00+
*       1.9606044990E+01               0
GRID*                459               03.4416236139E+005.1875106864E+00+
*       1.8727274989E+01               0
GRID*                460               01.9141587057E+007.5068676930E+00+
*       1.9059821802E+01               0
GRID*                461               05.1822032869E-014.4377743972E+00+
*       2.1931910319E+01               0
GRID*                462               01.7138765475E+004.1613391340E+00+
*       1.9997340879E+01               0
GRID*                463               03.2740258350E+005.1606284746E+00+
*       2.4013063339E+01               0
GRID*                464               01.2789862500E+017.2687306240E+00+
*       1.4938758153E+01               0
GRID*                465               01.1739429867E+011.0153387645E+01+
*       1.3302654354E+01               0
GRID*                466               01.3552598245E+019.4912015738E+00+
*       1.4920452512E+01               0
GRID*                467               01.3153993661E+019.2729025624E+00+
*       1.2945112128E+01               0
GRID*                468               01.5070790107E+017.6630234640E+00+
*       1.2885169096E+01               0
GRID*                469               01.4095069139E+011.0592114951E+01+
*       1.1448401939E+01               0
GRID*                470               01.5075063711E+011.0772679031E+01+
*       1.3760059625E+01               0
GRID*                471               01.2830509083E+011.2614713328E+01+
*       1.1922229546E+01               0
GRID*                472               01.1792997757E+011.3185153457E+01+
*       1.3538116223E+01               0
GRID*                473               01.4732368972E+011.3858662196E+01+
*       1.3246299319E+01               0
GRID*                474               01.2495786562E+017.7791296093E+00+
*       1.1358432441E+01               0
GRID*                475               0-1.235002513E+011.0949837685E+01+
*       4.5454126210E+01               0
GRID*                476               0-1.264437773E+011.3822578821E+01+
*       4.5096484741E+01               0
GRID*                477               0-1.438282931E+011.3541324477E+01+
*       4.6390380786E+01               0
GRID*                478               0-1.195397135E+011.3599406559E+01+
*       4.6640332857E+01               0
GRID*                479               0-1.251214857E+017.4892752963E+00+
*       2.8778949336E+01               0
GRID*                480               0-1.219918628E+018.0532089077E+00+
*       3.1342096397E+01               0
GRID*                481               0-1.056369672E+017.4864783900E+00+
*       2.9533289799E+01               0
GRID*                482               0-1.127735757E+011.0807795896E+01+
*       2.9923729697E+01               0
GRID*                483               0-1.018233973E+012.0404886850E+00+
*       4.7349332647E+01               0
GRID*                484               0-8.381517730E+002.1921279495E+00+
*       4.4865687009E+01               0
GRID*                485               0-1.088301247E+012.0693662768E+00+
*       4.5363380677E+01               0
GRID*                486               0-1.427523076E+018.7356982312E+00+
*       2.6944053645E+01               0
GRID*                487               0-1.110829083E+017.2945751002E+00+
*       2.7105950843E+01               0
GRID*                488               0-1.345917526E+016.0683781955E+00+
*       2.7122115183E+01               0
GRID*                489               0-1.371623468E+011.0475624335E+01+
*       2.8970952403E+01               0
GRID*                490               02.1171419661E+011.2460355609E+00+
*       2.8615071961E+01               0
GRID*                491               01.8904111663E+011.5797491107E+00+
*       2.7746205143E+01               0
GRID*                492               02.1332953222E+012.9918086110E+00+
*       2.9458850102E+01               0
GRID*                493               01.9868032475E+012.6007886349E+00+
*       2.6984761085E+01               0
GRID*                494               0-4.078541084E+001.3674274781E+00+
*       3.6038596676E+01               0
GRID*                495               0-6.235904606E+001.6422575980E+00+
*       3.7486744808E+01               0
GRID*                496               0-1.617967206E+011.0183741967E+01+
*       2.9404705102E+01               0
GRID*                497               0-1.485070176E+017.3846077058E+00+
*       2.9860245322E+01               0
GRID*                498               0-1.701675883E+018.2472717619E+00+
*       2.8584440927E+01               0
GRID*                499               04.0817090373E+00-5.235479537E+00+
*       5.5252176523E+01               0
GRID*                500               04.3425002559E+00-5.241422474E+00+
*       5.2816332243E+01               0
GRID*                501               02.4163317941E+001.0383542981E+01+
*       1.9333605513E+01               0
GRID*                502               0-3.448877195E-011.0277706235E+01+
*       1.7424607145E+01               0
GRID*                503               0-3.780827176E+001.3329708745E+01+
*       2.8997401183E+01               0
GRID*                504               0-1.185373101E+011.0285513229E+01+
*       2.7948272789E+01               0
GRID*                505               09.6685484080E+005.1106225640E+00+
*       3.1172468336E+01               0
GRID*                506               01.1184998194E+012.4767883368E+00+
*       3.0027436713E+01               0
GRID*                507               01.4994235879E+017.0883015188E+00+
*       2.9254370494E+01               0
GRID*                508               01.2071565881E+016.9136894352E+00+
*       2.7737267414E+01               0
GRID*                509               01.2898270560E+013.8224254515E+00+
*       2.8262444030E+01               0
GRID*                510               09.7418728932E+004.5555148032E+00+
*       2.8811263678E+01               0
GRID*                511               01.2023136108E+019.8690408506E+00+
*       3.0574876471E+01               0
GRID*                512               09.5008620623E+007.5043260318E+00+
*       3.0769308132E+01               0
GRID*                513               05.1162347066E+005.6075033317E+00+
*       6.1278009511E+01               0
GRID*                514               02.8578960066E+005.6298524686E+00+
*       6.0671733049E+01               0
GRID*                515               04.0972863459E+003.3708652382E+00+
*       6.1541894211E+01               0
GRID*                516               03.1771555629E+006.4218571806E+00+
*       6.3514458209E+01               0
GRID*                517               06.7929987020E+007.4760556223E+00+
*       6.2723214432E+01               0
GRID*                518               04.7252627558E+007.8795553762E+00+
*       6.1480188726E+01               0
GRID*                519               07.4946496109E+005.1917929432E+00+
*       6.2031238907E+01               0
GRID*                520               05.2482904490E+004.0414978096E+00+
*       6.3100588489E+01               0
GRID*                521               04.2420168010E+004.0045573165E+00+
*       5.8954752624E+01               0
GRID*                522               0-1.289207864E+011.1780381656E+00+
*       4.5407802056E+01               0
GRID*                523               0-1.217329946E+011.7504798511E+00+
*       4.6909741222E+01               0
GRID*                524               0-2.298736799E+011.3546534483E+01+
*       3.1735941783E+00               0
GRID*                525               0-2.284150804E+011.1756224951E+01+
*       4.9351645798E+00               0
GRID*                526               0-2.117065376E+011.3510774574E+01+
*       3.5656045954E+00               0
GRID*                527               0-2.195693820E+011.3556808969E+01+
*       5.0843857082E+00               0
GRID*                528               0-2.138972560E+004.8401353649E+00+
*       5.7483955795E+01               0
GRID*                529               0-3.811972442E+005.3560999897E+00+
*       5.5106269041E+01               0
GRID*                530               0-1.106649254E+006.9263463443E+00+
*       5.6696324822E+01               0
GRID*                531               0-2.219692054E+008.1222761902E+00+
*       5.4045635995E+01               0
GRID*                532               0-1.467792115E+011.5282422634E+00+
*       3.9006870898E+01               0
GRID*                533               0-1.069545138E+011.3254979962E+01+
*       3.6700047732E+01               0
GRID*                534               0-1.285047810E+011.3374536053E+01+
*       3.6015694878E+01               0
GRID*                535               0-9.667354609E+009.5381590478E+00+
*       4.4139813807E+01               0
GRID*                536               0-9.137293608E+001.2135951302E+01+
*       4.3125334808E+01               0
GRID*                537               0-1.157960034E+011.0306354583E+01+
*       4.1275513824E+01               0
GRID*                538               02.8474501292E+004.6431309544E+00+
*       5.6548371928E+01               0
GRID*                539               01.0166888017E+002.9553772614E+00+
*       5.6299291049E+01               0
GRID*                540               01.1692179092E+005.1994217012E+00+
*       5.8055348931E+01               0
GRID*                541               0-2.125660520E+016.7541586913E+00+
*       1.2028542423E+01               0
GRID*                542               0-1.996314230E+011.0218407783E+01+
*       9.2391570857E+00               0
GRID*                543               0-9.716721512E+001.2019201592E+00+
*       3.8372535759E+01               0
GRID*                544               0-1.024166407E+011.3866095194E+00+
*       3.5751897372E+01               0
GRID*                545               0-1.795355650E+011.0475399748E+01+
*       8.9731445984E+00               0
GRID*                546               0-2.182808797E+004.8181489070E+00+
*       7.7540374646E+00               0
GRID*                547               0-2.359137539E+003.9795813327E+00+
*       5.8662183048E+00               0
GRID*                548               0-6.437994398E-013.5464508348E+00+
*       5.8744080804E+00               0
GRID*                549               0-5.230133553E+005.2079613052E+00+
*       7.9560723385E+00               0
GRID*                550               0-2.714005606E+00-1.264281982E+01+
*       5.1049919810E+01               0
GRID*                551               0-5.235355279E+00-1.303936618E+01+
*       5.1769352776E+01               0
GRID*                552               0-4.991352674E+00-1.388141417E+01+
*       4.9110988751E+01               0
GRID*                553               0-4.721914791E+003.6904646737E+00+
*       5.8537200595E+00               0
GRID*                554               01.0185942315E+011.3840286182E+01+
*       1.7535673041E+01               0
GRID*                555               09.4409557574E+001.1283795478E+01+
*       1.8923283195E+01               0
GRID*                556               01.1913102672E+011.2710292584E+01+
*       1.7299105059E+01               0
GRID*                557               02.2007066525E+004.6961392819E+00+
*       3.9784926304E+01               0
GRID*                558               05.7353236711E+006.4539755575E+00+
*       3.6729063045E+01               0
GRID*                559               01.3863833198E+007.7073571686E+00+
*       4.1051052958E+01               0
GRID*                560               01.4021820811E+007.4894661994E+00+
*       3.8699663025E+01               0
GRID*                561               02.6814115544E+001.0459921480E+01+
*       3.9567177505E+01               0
GRID*                562               02.5296264153E+011.1722645275E+01+
*       1.2010825764E+01               0
GRID*                563               02.5000902280E+011.2066393011E+01+
*       1.3665107599E+01               0
GRID*                564               01.5967518965E+004.6112995353E+00+
*       3.7686022149E+01               0
GRID*                565               03.2128406662E+004.6223737840E+00+
*       4.2689920545E+01               0
GRID*                566               01.2350237406E+011.3160645555E+01+
*       3.6694291622E+01               0
GRID*                567               0-1.839289362E+012.7321672400E+00+
*       1.7316608155E+01               0
GRID*                568               0-1.781621774E+013.9564078996E+00+
*       1.7805692367E+01               0
GRID*                569               0-1.694252410E+014.8374890054E+00+
*       1.7028129081E+01               0
GRID*                570               0-2.020423050E+014.0527078687E+00+
*       1.6228593300E+01               0
GRID*                571               0-1.743756541E+015.8289656177E+00+
*       1.9977435659E+01               0
GRID*                572               0-1.882135185E+012.9436912084E+00+
*       2.0104511036E+01               0
GRID*                573               0-1.953194504E+016.6764110127E+00+
*       2.0562917703E+01               0
GRID*                574               0-1.969121730E+014.1600589407E+00+
*       1.8413116532E+01               0
GRID*                575               0-7.605520444E-011.0768683778E+01+
*       1.3461558959E+01               0
GRID*                576               0-2.852037582E+001.3009075645E+01+
*       1.3929262296E+01               0
GRID*                577               0-1.530493542E+009.9561008314E+00+
*       1.1645535674E+01               0
GRID*                578               0-3.613399034E+001.0438178575E+01+
*       1.3282614625E+01               0
GRID*                579               0-1.551007137E+014.3133576780E+00+
*       1.8808752024E+01               0
GRID*                580               0-1.616412061E+012.1410198750E+00+
*       1.6959504329E+01               0
GRID*                581               0-1.650922281E+012.4458413933E+00+
*       1.9641908545E+01               0
GRID*                582               0-1.450905653E+011.3377250971E+01+
*       5.0269526506E+01               0
GRID*                583               0-1.505088735E+011.8798963833E+00+
*       1.8695748961E+01               0
GRID*                584               04.7817277863E+005.7232139801E+00+
*       5.6691100116E+01               0
GRID*                585               06.4584323483E+004.0582778171E+00+
*       5.7239854184E+01               0
GRID*                586               04.9828634063E+002.5822873322E+00+
*       5.6831323536E+01               0
GRID*                587               06.1560548754E+001.3537925629E+01+
*       3.9171244478E+01               0
GRID*                588               07.1126244960E+004.5367892632E+00+
*       2.7163029513E+01               0
GRID*                589               05.8884047027E+001.6180996537E+00+
*       2.8899531546E+01               0
GRID*                590               04.9701761023E+002.0540037515E+00+
*       2.6993387965E+01               0
GRID*                591               06.9302295367E+001.8536876645E+00+
*       2.6342704084E+01               0
GRID*                592               01.8618489957E+001.3574614842E+01+
*       4.1402526293E+01               0
GRID*                593               03.3938601256E+001.1522464411E+01+
*       4.1533807337E+01               0
GRID*                594               01.4490537781E+009.9500831446E+00+
*       4.1213999326E+01               0
GRID*                595               06.7293103239E+002.6980490905E+00+
*       3.2649705365E+01               0
GRID*                596               04.0776044078E+00-7.350406614E+00+
*       4.7442187079E+01               0
GRID*                597               05.0112902035E+00-5.860990572E+00+
*       4.8767265334E+01               0
GRID*                598               04.3078186178E+00-9.893710371E+00+
*       4.8655232343E+01               0
GRID*                599               0-7.920627261E+008.7166140237E+00+
*       5.6608858566E+01               0
GRID*                600               0-5.211606250E+001.0240394930E+01+
*       5.5607743218E+01               0
GRID*                601               0-7.118875439E+001.0088286577E+01+
*       5.4223692609E+01               0
GRID*                602               0-9.078248197E+001.0919635696E+01+
*       5.5725447843E+01               0
GRID*                603               0-7.016163487E+007.4729288035E+00+
*       5.4635708406E+01               0
GRID*                604               0-8.604153384E+005.9393966143E+00+
*       5.6134858936E+01               0
GRID*                605               0-1.036896258E+018.7473305180E+00+
*       5.7196938268E+01               0
GRID*                606               0-9.650640952E+001.0859717440E+01+
*       5.7894129508E+01               0
GRID*                607               0-3.778559914E+008.5552123361E+00+
*       5.8540378662E+01               0
GRID*                608               0-2.696917435E+001.0834725700E+01+
*       5.8879215146E+01               0
GRID*                609               0-2.807896586E+001.0190652802E+01+
*       5.6305764022E+01               0
GRID*                610               0-6.968318529E+001.0378821751E+01+
*       5.8006738003E+01               0
GRID*                611               0-6.794941126E+006.5143647849E+00+
*       5.8150004876E+01               0
GRID*                612               0-6.354328730E+009.2845308810E+00+
*       6.0273221259E+01               0
GRID*                613               0-4.419467285E+001.0627190764E+01+
*       6.1122186701E+01               0
GRID*                614               0-2.175034863E+008.8271778288E+00+
*       6.0160548116E+01               0
GRID*                615               0-3.459409060E+00-1.196440848E+01+
*       4.6989789702E+01               0
GRID*                616               0-1.803393114E+00-1.415932168E+01+
*       4.8214009645E+01               0
GRID*                617               01.6842633295E+016.3105847898E+00+
*       4.6198565667E+01               0
GRID*                618               09.6287635955E+001.0540391229E+01+
*       3.5482758379E+01               0
GRID*                619               01.0058584167E+011.3664867364E+01+
*       3.4975975673E+01               0
GRID*                620               01.0468186766E+011.2038873683E+01+
*       3.7386257996E+01               0
GRID*                621               08.6394283091E+001.9613515902E+00+
*       4.3008267969E+01               0
GRID*                622               01.0172907234E+012.3051703758E+00+
*       4.4329147703E+01               0
GRID*                623               01.6494908007E+017.9696999850E+00+
*       4.7528508314E+01               0
GRID*                624               01.6303279519E+019.9485915213E+00+
*       4.6529777727E+01               0
GRID*                625               01.3104985095E+019.1807674736E+00+
*       4.6464360152E+01               0
GRID*                626               0-1.366278872E+011.3606628171E+01+
*       4.2880631541E+01               0
GRID*                627               0-1.240981855E+011.3342355183E+01+
*       4.0944726992E+01               0
GRID*                628               01.6716059912E+011.0295790441E+01+
*       2.6510573254E+01               0
GRID*                629               01.7618848199E+019.6875377626E+00+
*       2.8053271520E+01               0
GRID*                630               01.6028882332E+011.0596428892E+01+
*       2.8911649463E+01               0
GRID*                631               01.4959125363E+019.4918469790E+00+
*       2.7492745464E+01               0
GRID*                632               01.4326760263E+011.4031375792E+00+
*       4.0081498104E+01               0
GRID*                633               01.4989601420E+011.2827558549E+00+
*       4.2798430825E+01               0
GRID*                634               01.7158075715E+016.6586046114E+00+
*       2.7433851107E+01               0
GRID*                635               01.4250751521E+017.1830730606E+00+
*       2.6916905350E+01               0
GRID*                636               01.5678496665E+017.5445729662E+00+
*       2.4398528671E+01               0
GRID*                637               01.8012528188E+019.0896442398E+00+
*       2.5312869410E+01               0
GRID*                638               01.6385054912E+011.0202518204E+01+
*       2.4111786547E+01               0
GRID*                639               01.7174422552E+011.1510387575E+01+
*       2.6076935131E+01               0
GRID*                640               01.4218636352E+011.0072272082E+01+
*       2.4868893199E+01               0
GRID*                641               01.2172501810E+016.7302090750E+00+
*       5.3367923069E+01               0
GRID*                642               01.3363731486E+017.5336209174E+00+
*       5.6589955349E+01               0
GRID*                643               01.2667861586E+019.0836620091E+00+
*       5.4553981294E+01               0
GRID*                644               01.1069746895E+016.2447826987E+00+
*       5.5363386218E+01               0
GRID*                645               0-2.747570301E+016.4174419848E+00+
*       3.8696045554E+00               0
GRID*                646               01.2134619115E+013.7917743056E+00+
*       5.4869411907E+01               0
GRID*                647               01.3589127433E+015.8887816087E+00+
*       5.5864857625E+01               0
GRID*                648               01.4288360165E+017.9351844236E+00+
*       5.4720824486E+01               0
GRID*                649               01.3395630047E+019.2219696887E+00+
*       5.2440775694E+01               0
GRID*                650               01.8724642194E+012.5687937422E+00+
*       3.7527569832E+01               0
GRID*                651               01.8809964688E+014.8001124265E+00+
*       3.7687719176E+01               0
GRID*                652               01.8509240210E+015.1964265196E+00+
*       3.9556167995E+01               0
GRID*                653               01.5444605054E+015.9246264548E+00+
*       5.2233130844E+01               0
GRID*                654               01.4730475841E+016.3955656237E+00+
*       5.3841954629E+01               0
GRID*                655               01.3142308782E+014.5925572469E+00+
*       5.2422534419E+01               0
GRID*                656               0-3.657505643E+001.0095129608E+01+
*       5.1318756540E+01               0
GRID*                657               0-3.565847480E+005.1085367778E+00+
*       4.9884447712E+01               0
GRID*                658               0-1.088207931E+011.0188337445E+01+
*       3.6816585123E+01               0
GRID*                659               0-9.513668203E+008.1371851787E+00+
*       3.5590344173E+01               0
GRID*                660               0-7.995499500E+001.0428723608E+01+
*       3.6701875275E+01               0
GRID*                661               0-8.005399804E+005.1424026453E+00+
*       3.8511405977E+01               0
GRID*                662               0-7.604892672E+007.6072065645E+00+
*       3.6719099697E+01               0
GRID*                663               01.5429010845E+011.6604399103E+00+
*       4.4600892023E+01               0
GRID*                664               01.7572050066E+011.4769312180E+00+
*       4.2678162879E+01               0
GRID*                665               0-1.079948736E+011.0803418858E+01+
*       3.8609208604E+01               0
GRID*                666               01.8590812124E+011.5595247172E+00+
*       3.4673457647E+01               0
GRID*                667               01.7162371606E+011.6883847210E+00+
*       3.6854431713E+01               0
GRID*                668               0-1.724232712E+018.7198019779E+00+
*       2.3335405846E+01               0
GRID*                669               0-1.698574889E+017.8522266038E+00+
*       2.1315876611E+01               0
GRID*                670               0-1.640378203E+015.8385737866E+00+
*       2.3561188088E+01               0
GRID*                671               0-1.864948142E+015.4915849789E+00+
*       2.2520750697E+01               0
GRID*                672               0-2.004874193E+017.3563416676E+00+
*       2.3442165673E+01               0
GRID*                673               0-1.852876188E+016.4211422676E+00+
*       2.4975203827E+01               0
GRID*                674               0-2.011593643E+014.9028246199E+00+
*       2.4728111153E+01               0
GRID*                675               0-1.677409723E+012.8786748094E+00+
*       2.2282497285E+01               0
GRID*                676               0-4.579423082E+008.9656586059E+00+
*       3.4435422358E+01               0
GRID*                677               0-3.068606589E+007.9180048979E+00+
*       3.2050033048E+01               0
GRID*                678               0-3.275805963E+001.0378123274E+01+
*       3.2980965437E+01               0
GRID*                679               0-4.409883112E+005.6272085085E+00+
*       3.3655695057E+01               0
GRID*                680               0-2.770688774E+007.7148865475E+00+
*       3.4855068344E+01               0
GRID*                681               0-5.638809571E+007.5582949229E+00+
*       3.2470067276E+01               0
GRID*                682               0-6.662283796E+007.6150159625E+00+
*       3.4697799118E+01               0
GRID*                683               01.6708697513E+011.4858849750E+00+
*       3.9045670005E+01               0
GRID*                684               0-4.228979534E+001.1743860594E+01+
*       3.3089356144E+01               0
GRID*                685               0-5.891812955E+001.0656707691E+01+
*       3.3943955188E+01               0
GRID*                686               0-3.815175630E+001.1029416890E+01+
*       3.4977092168E+01               0
GRID*                687               01.3578709362E+016.4217497828E+00+
*       2.4282852088E+01               0
GRID*                688               01.1109912922E+016.6859493985E+00+
*       2.4161878233E+01               0
GRID*                689               01.1620627065E+018.9280958239E+00+
*       2.6333703078E+01               0
GRID*                690               01.3339264350E+018.5525548883E+00+
*       2.4121269268E+01               0
GRID*                691               08.9576363068E+001.0238369742E+01+
*       2.5397151214E+01               0
GRID*                692               01.1681808348E+011.0566170975E+01+
*       2.4634140836E+01               0
GRID*                693               01.2100636573E+011.1433382370E+01+
*       2.6506528711E+01               0
GRID*                694               01.3137126103E+011.0533576040E+01+
*       2.8565977711E+01               0
GRID*                695               01.0571030779E+011.0389539894E+01+
*       2.7549229885E+01               0
GRID*                696               01.2556489723E+015.8477593536E+00+
*       6.3016418543E+00               0
GRID*                697               01.3506456928E+014.0801432185E+00+
*       7.8118704867E+00               0
GRID*                698               01.8626069837E+014.8909338992E+00+
*       7.7141247784E+00               0
GRID*                699               01.7017826749E+017.1824523555E+00+
*       5.6491047467E+00               0
GRID*                700               01.4976332226E+011.1751971004E+01+
*       5.5695930511E+00               0
GRID*                701               01.7385897522E+019.8760865773E+00+
*       5.8827194440E+00               0
GRID*                702               0-8.692785996E+004.5147668476E+00+
*       1.5100415891E+01               0
GRID*                703               0-5.792141644E+006.0314579815E+00+
*       1.4962651153E+01               0
GRID*                704               0-6.506165526E+004.8881627164E+00+
*       1.7308105795E+01               0
GRID*                705               0-6.301094972E+009.0107415959E+00+
*       1.5285844637E+01               0
GRID*                706               0-3.731583549E+007.4822231399E+00+
*       1.5457466240E+01               0
GRID*                707               0-5.564149903E+006.9283949509E+00+
*       1.2984672255E+01               0
GRID*                708               0-6.094862370E+007.5484552669E+00+
*       1.7000404012E+01               0
GRID*                709               0-4.650467254E+004.5924200648E+00+
*       1.6784586499E+01               0
GRID*                710               0-3.252867488E+004.4980403851E+00+
*       1.4204406453E+01               0
GRID*                711               0-2.964986337E+006.5238869697E+00+
*       1.2333829687E+01               0
GRID*                712               0-5.044079290E+003.9490251917E+00+
*       1.4105224208E+01               0
GRID*                713               0-1.586823845E+015.5183389475E+00+
*       5.5193820531E+00               0
GRID*                714               0-1.288984682E+016.8238430910E+00+
*       5.0472572235E+00               0
GRID*                715               0-1.371227672E+013.3897828292E+00+
*       5.5161465506E+00               0
GRID*                716               0-1.375304173E+015.1251950698E+00+
*       3.2301425865E+00               0
GRID*                717               0-1.889459111E+019.5047418212E+00+
*       6.3916054327E+00               0
GRID*                718               0-1.701185242E+018.7578571475E+00+
*       4.0271319175E+00               0
GRID*                719               0-1.566329876E+016.9052808256E+00+
*       1.6815242924E+00               0
GRID*                720               0-1.506555161E+018.2671907384E+00+
*       3.3834242061E+00               0
GRID*                721               0-1.655494670E+015.1124228836E+00+
*       3.3805560032E+00               0
GRID*                722               01.6196360318E+011.6289759349E+00+
*       4.1400521337E+01               0
GRID*                723               0-5.467697774E+002.3971182903E+00+
*       2.6873157420E+01               0
GRID*                724               0-5.175864070E+005.6246943678E+00+
*       2.6660744448E+01               0
GRID*                725               0-5.130310794E+003.6780165847E+00+
*       2.9447864537E+01               0
GRID*                726               0-3.436804143E+003.4485780966E+00+
*       2.6340276913E+01               0
GRID*                727               0-3.575645963E+007.3427502927E+00+
*       2.6501409217E+01               0
GRID*                728               0-7.072323425E+007.7934468130E+00+
*       2.4187061471E+01               0
GRID*                729               0-4.859108800E+004.0382297115E+00+
*       2.4153513239E+01               0
GRID*                730               0-7.297244593E+004.9640866094E+00+
*       2.6652665238E+01               0
GRID*                731               0-6.301118234E+007.4222699059E+00+
*       2.7737259664E+01               0
GRID*                732               0-6.791666595E+004.0377758854E+00+
*       2.4738464889E+01               0
GRID*                733               04.0338178822E+009.9156240515E+00+
*       3.7167560588E+01               0
GRID*                734               07.5893706654E+007.7921286889E+00+
*       3.8113621301E+01               0
GRID*                735               05.9082161377E+003.8819066245E+00+
*       3.6640746944E+01               0
GRID*                736               05.3124591183E+001.1355106278E+01+
*       2.3211150511E+01               0
GRID*                737               05.8828103762E+001.0504224356E+01+
*       2.5229294893E+01               0
GRID*                738               04.4209569844E+001.0593280759E+01+
*       2.6175358542E+01               0
GRID*                739               03.7626517736E+008.8833561872E+00+
*       2.4752347523E+01               0
GRID*                740               0-6.407367520E+001.3208826890E+01+
*       3.5913725248E+01               0
GRID*                741               0-4.353411180E+001.3752479291E+01+
*       3.6481056304E+01               0
GRID*                742               0-5.296620214E+001.0826259421E+01+
*       3.6721429962E+01               0
GRID*                743               0-4.887453704E+001.3402116663E+01+
*       3.4128032686E+01               0
GRID*                744               02.9116136238E+001.0728330628E+01+
*       1.2971212565E+00               0
GRID*                745               05.9894409659E+007.5275848097E+00+
*       2.6675956133E+01               0
GRID*                746               02.6200134566E+007.4125035538E+00+
*       2.6425858883E+01               0
GRID*                747               01.1012431596E+016.0253095190E+00+
*       1.4249398879E+01               0
GRID*                748               01.1019105687E+015.9501910006E+00+
*       1.7150733424E+01               0
GRID*                749               01.3108357440E+014.8242964987E+00+
*       1.4608195773E+01               0
GRID*                750               01.0423054554E+013.7814273780E+00+
*       1.6360904680E+01               0
GRID*                751               01.1172481016E+012.9921396513E+00+
*       1.5011265227E+01               0
GRID*                752               09.7864310713E+005.0335409186E+00+
*       1.3703456094E+01               0
GRID*                753               01.1485958321E+014.9094843830E+00+
*       1.2851499641E+01               0
GRID*                754               05.2298590879E+001.0977810040E+01+
*       1.6633753330E+00               0
GRID*                755               06.0075463731E+009.5875639720E+00+
*       1.5896360443E+00               0
GRID*                756               0-1.084854544E+017.1092205132E+00+
*       1.0819990453E+01               0
GRID*                757               0-9.289745703E+001.1007601492E+01+
*       1.0742566571E+01               0
GRID*                758               0-1.141598148E+019.9349131150E+00+
*       9.3050871441E+00               0
GRID*                759               01.4381190913E+001.3050060997E+01+
*       3.8916288365E+01               0
GRID*                760               0-6.335614096E-011.3037637463E+01+
*       3.9610556374E+01               0
GRID*                761               02.8084076452E-011.2722127799E+01+
*       4.1791732975E+01               0
GRID*                762               0-1.233160963E+011.3059927477E+01+
*       1.0646432666E+01               0
GRID*                763               0-1.117372222E+011.0376305600E+01+
*       1.1522728931E+01               0
GRID*                764               0-1.040255494E+011.2918021249E+01+
*       1.0333271413E+01               0
GRID*                765               0-1.331531910E+011.0908612941E+01+
*       9.5306026454E+00               0
GRID*                766               0-1.075110565E+011.0998641232E+01+
*       8.1017138205E+00               0
GRID*                767               09.2208516788E+005.8140025109E+00+
*       2.6732305349E+01               0
GRID*                768               01.0427341596E+011.9601254887E+00+
*       2.6900555436E+01               0
GRID*                769               08.6429168149E+001.9129438795E+00+
*       2.7408464446E+01               0
GRID*                770               09.0302567046E+007.6071083668E+00+
*       2.8029336769E+01               0
GRID*                771               07.0021466102E+004.5522765211E+00+
*       2.9558280156E+01               0
GRID*                772               06.4514053965E+001.0875348812E+01+
*       3.8210919527E+00               0
GRID*                773               07.7045544169E+001.3508105538E+01+
*       5.3470807039E+00               0
GRID*                774               08.6544366792E+001.0566303270E+01+
*       3.9065019937E+00               0
GRID*                775               08.6200628662E+001.3346016666E+01+
*       3.2039319320E+00               0
GRID*                776               0-2.318342690E+014.5680712442E+00+
*       2.1543365211E+01               0
GRID*                777               08.2040619196E+007.9392647418E+00+
*       2.4739636279E+01               0
GRID*                778               08.0044019917E+004.5875236484E+00+
*       2.4577029503E+01               0
GRID*                779               09.8043876899E+004.4476764829E+00+
*       2.4512978345E+01               0
GRID*                780               08.2135244182E+001.1001292013E+01+
*       3.6989329712E+01               0
GRID*                781               09.6347213349E+001.0999993556E+01+
*       3.9569941375E+01               0
GRID*                782               01.0086567546E+019.4082400141E+00+
*       3.8338732242E+01               0
GRID*                783               0-1.923406220E+011.3633990129E+01+
*       2.2938173168E+01               0
GRID*                784               01.1558540475E+011.1488948780E+01+
*       3.8888081951E+01               0
GRID*                785               01.2151786544E+019.8030322353E+00+
*       3.7084105438E+01               0
GRID*                786               01.0793880450E+019.8757362891E+00+
*       4.1773782988E+01               0
GRID*                787               08.9556399472E+007.3300984540E+00+
*       4.0491436226E+01               0
GRID*                788               01.2642721701E+011.0391338424E+01+
*       3.9335939347E+01               0
GRID*                789               0-1.267534381E+014.7679298337E+00+
*       1.1331445541E+01               0
GRID*                790               0-3.889441947E+002.4779592205E+00+
*       4.0585553563E+01               0
GRID*                791               0-5.349735601E+001.4239992944E+00+
*       4.2823676907E+01               0
GRID*                792               0-7.027617956E+001.1926619990E+00+
*       4.1172725530E+01               0
GRID*                793               0-1.465988469E+012.5723293111E+00+
*       1.1248180347E+01               0
GRID*                794               01.1064318998E+011.1181151353E+01+
*       4.3920818217E+01               0
GRID*                795               01.2877202370E+011.1540657408E+01+
*       4.4278728988E+01               0
GRID*                796               01.2198209205E+011.2632579430E+01+
*       4.1112574279E+01               0
GRID*                797               01.0534917346E+011.2280574253E+01+
*       4.1429411766E+01               0
GRID*                798               01.2071930028E+011.3503705962E+01+
*       4.3625276238E+01               0
GRID*                799               0-4.041226654E+009.0564859814E+00+
*       1.8418832327E+01               0
GRID*                800               0-5.019718579E+001.0446055291E+01+
*       2.0533928182E+01               0
GRID*                801               0-4.287729116E+001.2518458888E+01+
*       1.8250863959E+01               0
GRID*                802               0-6.233791960E+001.0703263775E+01+
*       1.8070314262E+01               0
GRID*                803               0-2.776729046E+006.4821638559E+00+
*       1.8308412928E+01               0
GRID*                804               0-6.290808872E+007.5702149103E+00+
*       1.9607525803E+01               0
GRID*                805               0-3.971916785E+001.0559247110E+01+
*       1.6751172275E+01               0
GRID*                806               0-1.082610896E+001.0998986516E+01+
*       3.1420770767E+01               0
GRID*                807               09.3520739628E-027.8337114500E+00+
*       3.0796845217E+01               0
GRID*                808               02.1861872409E-017.6928778998E+00+
*       3.3207828609E+01               0
GRID*                809               0-7.890932306E-019.9654997258E+00+
*       3.3738528277E+01               0
GRID*                810               0-3.251689774E+004.5757519103E+00+
*       2.8860959390E+01               0
GRID*                811               0-1.103577970E+004.5195087596E+00+
*       2.9751738936E+01               0
GRID*                812               0-1.527985161E+007.4603075992E+00+
*       2.8754310128E+01               0
GRID*                813               0-3.583015642E+004.8091850816E+00+
*       3.1674753281E+01               0
GRID*                814               0-1.967096683E+015.0594075917E+00+
*       3.5486340754E+01               0
GRID*                815               0-1.862748500E+005.7120665963E+00+
*       3.2177298048E+01               0
GRID*                816               0-9.917900305E-014.4972296151E+00+
*       3.4834734804E+01               0
GRID*                817               01.7383680548E+013.7715109986E+00+
*       4.3027941681E+01               0
GRID*                818               01.7984841136E+015.0101216346E+00+
*       4.1778571439E+01               0
GRID*                819               0-7.096041388E-014.2716331993E+00+
*       3.1674119882E+01               0
GRID*                820               0-2.717954342E+002.2152507322E+00+
*       3.1840932099E+01               0
GRID*                821               0-2.802871044E+004.2866305552E+00+
*       3.3364597119E+01               0
GRID*                822               01.1554542519E+011.0993299902E+01+
*       3.4350105631E+01               0
GRID*                823               01.0350170756E+011.0710543539E+01+
*       3.2338673326E+01               0
GRID*                824               01.7927551865E+018.1935460580E+00+
*       2.3076608558E+01               0
GRID*                825               01.8026887633E+015.9528607330E+00+
*       2.4366730578E+01               0
GRID*                826               02.0196408939E+015.8393336238E+00+
*       2.3514598550E+01               0
GRID*                827               01.8820152816E+016.0922072364E+00+
*       2.1751164620E+01               0
GRID*                828               01.7081339392E+017.0832521357E+00+
*       2.0025658755E+01               0
GRID*                829               01.8390723422E+011.1163853227E+01+
*       2.2394687985E+01               0
GRID*                830               01.6676402139E+019.6352808562E+00+
*       2.1184025976E+01               0
GRID*                831               01.5194811134E+018.6893764292E+00+
*       2.3205311536E+01               0
GRID*                832               0-1.220784048E+018.3279885839E+00+
*       2.4544615203E+01               0
GRID*                833               0-1.166998756E+011.0057863100E+01+
*       2.5404051024E+01               0
GRID*                834               0-1.435891073E+018.1994925731E+00+
*       2.4225141502E+01               0
GRID*                835               0-1.235188252E+016.2239729000E+00+
*       2.4570392911E+01               0
GRID*                836               0-1.258557738E+017.2865503097E+00+
*       2.1557736278E+01               0
GRID*                837               0-1.084099067E+017.6784373714E+00+
*       2.2609349535E+01               0
GRID*                838               0-9.474190368E+007.1884493126E+00+
*       2.5006153731E+01               0
GRID*                839               0-1.256169902E+011.0884666477E+01+
*       2.2838395616E+01               0
GRID*                840               0-1.077667312E+011.1001528875E+01+
*       2.3180487238E+01               0
GRID*                841               0-9.737191257E+009.9934819780E+00+
*       2.3587699211E+01               0
GRID*                842               01.7389804240E+013.3848143008E+00+
*       4.4888430679E+01               0
GRID*                843               0-1.720280992E+011.3166439814E+01+
*       3.3156592582E+00               0
GRID*                844               0-1.667585555E+011.3532893022E+01+
*       5.6780768663E+00               0
GRID*                845               0-1.847576433E+011.3488886798E+01+
*       5.3747205043E+00               0
GRID*                846               0-6.648523443E+004.9625525607E+00+
*       3.2363632107E+01               0
GRID*                847               0-5.486699859E+006.1337046481E+00+
*       3.0638906076E+01               0
GRID*                848               0-2.849335939E+001.3420635684E+01+
*       3.4529769793E+01               0
GRID*                849               0-2.699252294E+001.3189941332E+01+
*       3.6640001158E+01               0
GRID*                850               0-4.143697651E+007.9995269602E+00+
*       2.9396827782E+01               0
GRID*                851               01.1229480665E+013.9683171102E+00+
*       1.9636395226E+01               0
GRID*                852               09.1391842813E+002.0122803690E+00+
*       1.9708193110E+01               0
GRID*                853               01.0698445003E+011.7905107722E+00+
*       1.9754966823E+01               0
GRID*                854               01.0019525349E+014.4273408856E+00+
*       2.1517818527E+01               0
GRID*                855               08.2691593608E+003.6019845388E+00+
*       1.7970580098E+01               0
GRID*                856               01.0088242855E+013.5727185534E+00+
*       1.7767696812E+01               0
GRID*                857               01.1322609790E+016.3804318411E+00+
*       2.0648149007E+01               0
GRID*                858               06.4220164624E+005.3227767180E+00+
*       1.8317671385E+01               0
GRID*                859               07.1210343311E+007.8811576400E+00+
*       2.0014151202E+01               0
GRID*                860               01.6480703244E+015.1622275328E+00+
*       2.2488443008E+01               0
GRID*                861               0-1.746396798E+016.8019103762E+00+
*       1.4413459945E+00               0
GRID*                862               01.5388716979E+014.9822154402E+00+
*       2.5846484770E+01               0
GRID*                863               01.4861864227E+011.3311043828E+01+
*       2.5263710480E+01               0
GRID*                864               01.4648181667E+011.2682843326E+01+
*       2.7017552329E+01               0
GRID*                865               0-5.528245118E+008.0696996604E+00+
*       5.2551365511E+01               0
GRID*                866               0-4.326455317E+004.9496925204E+00+
*       5.2242249346E+01               0
GRID*                867               02.9701478128E+001.0667867187E+01+
*       5.1910772698E+01               0
GRID*                868               0-2.065259385E+007.5024751413E+00+
*       4.6574699139E+01               0
GRID*                869               0-6.140403736E-013.2204782470E+00+
*       4.7143193891E+01               0
GRID*                870               0-2.281955819E+002.6008620476E+00+
*       4.8855854566E+01               0
GRID*                871               0-2.108828083E+006.5629199003E+00+
*       6.0579495814E+01               0
GRID*                872               0-6.831099098E-016.7509136228E+00+
*       5.9569766384E+01               0
GRID*                873               0-1.183076465E+004.6415108123E+00+
*       6.1575972352E+01               0
GRID*                874               0-9.537551364E-014.1747242688E+00+
*       5.9489760650E+01               0
GRID*                875               0-2.221154673E+016.1441607616E+00+
*       8.6386991021E+00               0
GRID*                876               0-2.164483993E+015.7463549042E+00+
*       6.0215770185E+00               0
GRID*                877               01.5462599816E-011.0134304019E+01+
*       7.4471959543E+00               0
GRID*                878               0-1.021369543E+008.3771394191E+00+
*       3.7042061355E+00               0
GRID*                879               01.7311992825E+008.4564633331E+00+
*       3.6786520872E+00               0
GRID*                880               02.2587170789E-014.7954727591E+00+
*       8.2800309649E+00               0
GRID*                881               02.0827093781E+005.1279254678E+00+
*       7.0578417330E+00               0
GRID*                882               07.8268671696E+009.8872720993E+00+
*       4.8587581968E+01               0
GRID*                883               09.1203602185E+008.5672990095E+00+
*       5.1738236991E+01               0
GRID*                884               07.1601779982E+008.0290037687E+00+
*       5.1393086803E+01               0
GRID*                885               09.7152198224E+001.1225435123E+01+
*       5.1061202623E+01               0
GRID*                886               0-2.129794576E+013.4352733786E+00+
*       8.8586953831E+00               0
GRID*                887               0-2.009574727E+014.5676283871E+00+
*       7.3944596744E+00               0
GRID*                888               0-2.398577139E+016.9212271817E+00+
*       9.4724940365E+00               0
GRID*                889               0-2.433985781E+016.1616121405E+00+
*       7.0043358453E+00               0
GRID*                890               0-2.347350972E+014.1886757326E+00+
*       9.1446953257E+00               0
GRID*                891               0-1.334091269E+018.8655716667E+00+
*       4.3500858024E+01               0
GRID*                892               0-1.222242960E+015.9755706696E+00+
*       4.4353477230E+01               0
GRID*                893               0-1.416044384E+015.8656194023E+00+
*       4.5670034364E+01               0
GRID*                894               0-1.538635084E+016.2825649594E+00+
*       4.3354036690E+01               0
GRID*                895               0-1.157420962E+017.3441874328E+00+
*       4.5921887912E+01               0
GRID*                896               0-1.328754953E+016.2176418374E+00+
*       4.1680449285E+01               0
GRID*                897               0-1.812041553E+011.3922742415E+00+
*       4.0376824523E+01               0
GRID*                898               0-1.472500928E+018.4632283355E+00+
*       4.5692035529E+01               0
GRID*                899               0-1.385759002E+017.3911064785E+00+
*       4.8837080745E+01               0
GRID*                900               0-1.285395180E+011.0343418305E+01+
*       4.8058870268E+01               0
GRID*                901               0-1.121319502E+018.9875951384E+00+
*       4.7327167776E+01               0
GRID*                902               0-1.112585208E+017.6454882170E+00+
*       4.2219957696E+01               0
GRID*                903               0-8.150212172E+008.2033421865E+00+
*       4.6369540846E+01               0
GRID*                904               0-2.353817240E+00-8.673365064E+00+
*       4.6537315570E+01               0
GRID*                905               0-1.400017658E+011.8767506170E+00+
*       3.2049920794E+01               0
GRID*                906               0-1.647897648E+011.4889964271E+00+
*       3.3255393200E+01               0
GRID*                907               0-1.440431583E+012.1766249772E+00+
*       3.3807328271E+01               0
GRID*                908               0-1.153814733E+011.2908945389E+01+
*       4.4177360734E+01               0
GRID*                909               0-9.689069808E+001.3144776335E+01+
*       4.4886548631E+01               0
GRID*                910               0-2.063910324E+001.2054614051E+01+
*       5.5343602394E+00               0
GRID*                911               0-1.899760298E+001.2682322120E+01+
*       7.0592262767E+00               0
GRID*                912               0-1.178680385E+011.1100260664E+01+
*       2.9348272918E+00               0
GRID*                913               0-1.185668480E+011.3599258692E+01+
*       1.7563438857E+00               0
GRID*                914               0-1.297604807E+011.1791238014E+01+
*       1.3351391961E+00               0
GRID*                915               0-1.254832763E+011.3255106198E+01+
*       3.3381987519E+00               0
GRID*                916               0-1.033445152E+001.0903563499E+01+
*       4.0178359806E+00               0
GRID*                917               0-2.430681130E+007.6700661949E+00+
*       9.3432698120E+00               0
GRID*                918               0-1.067919124E+001.0036264826E+01+
*       9.4039069505E+00               0
GRID*                919               0-2.200873495E+016.5282076871E+00+
*       3.2281888723E+00               0
GRID*                920               0-2.112168248E+014.6090393018E+00+
*       1.2843257101E+00               0
GRID*                921               0-2.312029295E+014.9982868438E+00+
*       3.0232411707E+00               0
GRID*                922               0-2.197468527E+016.1647189468E+00+
*       1.2130210918E+00               0
GRID*                923               0-2.294526839E+011.0283961499E+01+
*       3.8520579833E+00               0
GRID*                924               0-2.154434042E+018.2383548804E+00+
*       4.7742161911E+00               0
GRID*                925               0-2.445288779E+018.5296413778E+00+
*       4.2155716903E+00               0
GRID*                926               0-2.278082814E+018.5504080423E+00+
*       1.8532205935E+00               0
GRID*                927               0-1.273524205E+011.9349383297E+00+
*       4.1446390258E+01               0
GRID*                928               0-8.310036406E+001.8140546549E+00+
*       3.7233302838E+01               0
GRID*                929               0-8.829123842E+002.0546497428E+00+
*       3.9869706018E+01               0
GRID*                930               0-2.474643898E+016.4219398717E+00+
*       4.4685353350E+00               0
GRID*                931               0-1.528380889E+013.6865897835E+00+
*       4.0617413539E+01               0
GRID*                932               0-1.591807966E+011.7712478272E+00+
*       4.0531832662E+01               0
GRID*                933               0-2.392902286E+013.7014805521E+00+
*       5.1794067327E+00               0
GRID*                934               06.6764589240E+007.2066518761E+00+
*       5.5226468383E+01               0
GRID*                935               07.9241745341E+006.7129415668E+00+
*       5.7022241404E+01               0
GRID*                936               08.3224706738E+004.4591850474E+00+
*       5.4095215860E+01               0
GRID*                937               09.2825823499E+006.4555903528E+00+
*       5.3696485420E+01               0
GRID*                938               08.5174623288E+008.5957188049E+00+
*       5.4692893189E+01               0
GRID*                939               01.0673434904E+019.3168379163E+00+
*       5.4457647280E+01               0
GRID*                940               08.4932184451E+001.0256422741E+01+
*       5.2929540725E+01               0
GRID*                941               0-5.726044165E+002.7899085690E+00+
*       4.8943995391E+01               0
GRID*                942               0-7.077587603E+005.0375943711E+00+
*       5.0846148042E+01               0
GRID*                943               0-1.386464833E+011.5012480271E+00+
*       4.8118435859E+01               0
GRID*                944               06.2234043202E+009.4942643788E+00+
*       5.5734327431E+01               0
GRID*                945               09.1900268596E+001.1355148592E+01+
*       5.4919206750E+01               0
GRID*                946               09.0642257992E+001.0043194890E+01+
*       5.6704058189E+01               0
GRID*                947               01.6299724835E+019.6701266089E+00+
*       3.9786778066E+01               0
GRID*                948               02.5262279239E+012.9357211749E+00+
*       4.2728576349E+00               0
GRID*                949               02.7386449523E+013.5124853446E+00+
*       3.9564825461E+00               0
GRID*                950               02.7021254305E+014.7497574263E+00+
*       4.4474178065E+00               0
GRID*                951               01.3678380844E+011.1395764180E+01+
*       4.1470719813E+01               0
GRID*                952               01.4922181650E+011.1898852004E+01+
*       3.8954933092E+01               0
GRID*                953               05.3433271023E+001.0110148143E+01+
*       5.2408218642E+01               0
GRID*                954               04.6430635098E+001.2853298719E+01+
*       5.1614352648E+01               0
GRID*                955               02.9659178916E+001.0131520281E+01+
*       4.8014992206E+01               0
GRID*                956               0-1.407908547E+013.7103405300E+00+
*       4.7428020790E+01               0
GRID*                957               0-1.084128033E+013.3240448252E+00+
*       4.8956416508E+01               0
GRID*                958               0-1.301527549E+014.3440338531E+00+
*       5.0365302612E+01               0
GRID*                959               07.6960537812E+001.2890417450E+01+
*       2.6173648416E+01               0
GRID*                960               06.9428712603E+001.0467502514E+01+
*       5.0680751676E+01               0
GRID*                961               05.2430127611E+001.0584307494E+01+
*       4.8652345499E+01               0
GRID*                962               03.4534558949E+001.2876780523E+01+
*       4.9785462493E+01               0
GRID*                963               02.4492547137E+018.1737408713E+00+
*       1.0533409881E+01               0
GRID*                964               0-1.889835318E+007.3940978927E+00+
*       1.4004620587E+01               0
GRID*                965               0-1.461746613E+001.0986633369E+01+
*       1.5910292795E+01               0
GRID*                966               0-1.560012200E+007.8044088074E+00+
*       1.6957587753E+01               0
GRID*                967               0-6.461040922E-027.1092216372E+00+
*       1.4803564902E+01               0
GRID*                968               0-2.744433877E-027.1687587553E+00+
*       1.2058131247E+01               0
GRID*                969               0-6.144629647E-014.0609434102E+00+
*       1.2899539191E+01               0
GRID*                970               01.6340931493E+011.3698489980E+01+
*       4.0204172467E+01               0
GRID*                971               0-1.565729230E+004.5654385139E+00+
*       1.5267438676E+01               0
GRID*                972               01.9493093224E+018.0926400527E+00+
*       6.2230271874E+00               0
GRID*                973               01.8975190225E+019.9597095278E+00+
*       3.8743212351E+00               0
GRID*                974               01.5678276821E+017.9066511211E+00+
*       2.0467985723E+00               0
GRID*                975               01.4201332653E+018.7645465641E+00+
*       3.4491029858E+00               0
GRID*                976               01.6206161011E+016.6892079839E+00+
*       3.5474929838E+00               0
GRID*                977               01.6632201668E+019.7004699684E+00+
*       3.8364682784E+00               0
GRID*                978               01.6362926997E+014.0733756072E+00+
*       5.2141121759E+00               0
GRID*                979               01.8703071281E+014.4708430839E+00+
*       5.1655492195E+00               0
GRID*                980               01.4201631656E+016.0408142767E+00+
*       3.6497183828E+00               0
GRID*                981               01.6390133422E+014.2666722442E+00+
*       8.6215509820E+00               0
GRID*                982               0-1.132944550E+011.2338426938E+00+
*       4.9351896627E+01               0
GRID*                983               0-4.752807620E+001.0516737867E+01+
*       3.9667147348E+01               0
GRID*                984               0-4.630868975E+005.1179360076E+00+
*       4.1434588579E+01               0
GRID*                985               0-4.729192623E+004.5973898771E+00+
*       3.8902131606E+01               0
GRID*                986               0-4.730879136E+008.4029520184E+00+
*       3.7517147863E+01               0
GRID*                987               0-4.827373242E+005.7113936920E+00+
*       3.7469211649E+01               0
GRID*                988               01.7152671995E-011.0797524339E+01+
*       5.0237823074E+01               0
GRID*                989               01.6265207600E+001.1281645526E+01+
*       4.7935851884E+01               0
GRID*                990               0-1.256082316E-014.4962221404E+00+
*       4.5232539142E+01               0
GRID*                991               01.2058049599E+001.0299524411E+01+
*       4.6448048833E+01               0
GRID*                992               0-1.050310088E+009.8847574392E+00+
*       4.6049097494E+01               0
GRID*                993               01.8253435756E+016.4706355794E+00+
*       4.0796046893E+01               0
GRID*                994               01.6276320256E+011.0324093524E+01+
*       8.8422057992E+00               0
GRID*                995               01.7834503223E+011.0278982052E+01+
*       7.7691996743E+00               0
GRID*                996               01.8866088958E+017.0643679291E+00+
*       3.8994656915E+00               0
GRID*                997               0-6.874857437E-011.4716687899E+00+
*       3.7115605405E+00               0
GRID*                998               01.7816518935E-011.5722581303E+00+
*       5.2628458779E+00               0
GRID*                999               0-1.696624696E+001.5464902553E+00+
*       5.7767155886E+00               0
GRID*               1000               0-1.141322336E+016.3991124806E+00+
*       4.9891772216E+01               0
GRID*               1001               0-9.850339528E+008.9199958796E+00+
*       4.9265684935E+01               0
GRID*               1002               01.5401757466E+015.4168972877E+00+
*       5.0087536635E+01               0
GRID*               1003               0-7.791738686E+001.0894059013E+01+
*       4.9029620689E+01               0
GRID*               1004               09.3883966234E+001.3371967844E+01+
*       3.3304313438E+01               0
GRID*               1005               07.7298544386E+001.6956068398E+00+
*       3.5362369270E+01               0
GRID*               1006               07.5595675831E+004.1871785742E+00+
*       4.1618124404E+01               0
GRID*               1007               09.1960836139E+006.9833378921E+00+
*       4.4020910688E+01               0
GRID*               1008               01.0820906891E+014.7512796884E+00+
*       4.0679306607E+01               0
GRID*               1009               0-5.251395080E+001.0350475005E+01+
*       9.7528591768E+00               0
GRID*               1010               08.7857759078E+002.5306950394E+00+
*       3.4271002380E+01               0
GRID*               1011               0-4.221689174E-011.0065074554E+01+
*       4.3905125709E+01               0
GRID*               1012               0-3.791080673E-017.5163527316E+00+
*       4.2193241109E+01               0
GRID*               1013               04.6904316519E-014.0831323683E+00+
*       4.2637476293E+01               0
GRID*               1014               0-1.582923288E+015.2629637293E+00+
*       2.8308556609E+01               0
GRID*               1015               0-1.555401058E+013.7105545114E+00+
*       2.7715409016E+01               0
GRID*               1016               0-1.827304941E+014.5794746233E+00+
*       2.9459439594E+01               0
GRID*               1017               0-1.871039721E+014.2445552106E+00+
*       2.6944217916E+01               0
GRID*               1018               0-1.929321219E+016.2663514503E+00+
*       1.6932681983E+01               0
GRID*               1019               0-1.955361699E+017.7001495345E+00+
*       1.8966672085E+01               0
GRID*               1020               0-2.173917433E+015.9231351233E+00+
*       1.9279389210E+01               0
GRID*               1021               0-1.786352533E+018.0831879702E+00+
*       1.6503178186E+01               0
GRID*               1022               0-2.089062069E+018.0848737002E+00+
*       1.4780349901E+01               0
GRID*               1023               0-1.919004380E+014.7462614183E+00+
*       1.3725118357E+01               0
GRID*               1024               0-1.739398349E+014.5444883319E+00+
*       1.4949701519E+01               0
GRID*               1025               08.1177618695E+002.1009827199E+00+
*       3.9490285805E+01               0
GRID*               1026               01.0209360406E+011.1760430895E+00+
*       3.9714733219E+01               0
GRID*               1027               08.9500050183E+002.2161580135E+00+
*       4.1021824852E+01               0
GRID*               1028               0-1.820759047E+013.8256593946E+00+
*       2.5318328348E+01               0
GRID*               1029               0-1.612688384E+015.1419843473E+00+
*       2.5430790361E+01               0
GRID*               1030               0-1.892865904E+011.6825846825E+00+
*       2.3566153792E+01               0
GRID*               1031               0-2.078214010E+015.0504851500E+00+
*       2.1941168046E+01               0
GRID*               1032               0-1.682553259E+017.4389947564E+00+
*       2.5871816892E+01               0
GRID*               1033               0-1.827980419E+019.4913235940E+00+
*       2.5762890788E+01               0
GRID*               1034               0-1.625482258E+013.3127804142E+00+
*       2.9422043320E+01               0
GRID*               1035               0-1.668507886E+015.6166169503E+00+
*       3.0893167287E+01               0
GRID*               1036               0-1.718685839E+011.6133423515E+00+
*       2.9551792507E+01               0
GRID*               1037               0-1.907912893E+011.7723002163E+00+
*       2.9843783334E+01               0
GRID*               1038               0-1.730833960E+013.8733463464E+00+
*       3.1158730853E+01               0
GRID*               1039               0-1.713178495E+011.6092594246E+00+
*       2.7646392771E+01               0
GRID*               1040               0-2.043041622E+015.3273677316E+00+
*       3.1377798242E+01               0
GRID*               1041               0-2.058071378E+012.9408247538E+00+
*       3.0807631807E+01               0
GRID*               1042               0-1.460398826E+015.0053419101E+00+
*       3.0210228725E+01               0
GRID*               1043               0-2.127163624E+011.4207426909E+00+
*       2.3712905215E+01               0
GRID*               1044               0-2.249706469E+013.9898787556E+00+
*       2.3776668714E+01               0
GRID*               1045               0-1.996565669E+011.6070526220E+00+
*       2.1813901589E+01               0
GRID*               1046               01.6485296987E+019.4509917402E+00+
*       3.7061250023E+01               0
GRID*               1047               01.4524011744E+011.0661279100E+01+
*       3.4852951451E+01               0
GRID*               1048               01.6541692449E+011.1286876216E+01+
*       3.7323019788E+01               0
GRID*               1049               01.7388167412E+011.1095285524E+01+
*       3.4731234196E+01               0
GRID*               1050               01.6902306003E+016.2465794146E+00+
*       3.6470477733E+01               0
GRID*               1051               01.4969105625E+019.3470411314E+00+
*       3.7641714835E+01               0
GRID*               1052               01.6969721019E+016.9077007363E+00+
*       3.9112369675E+01               0
GRID*               1053               01.9051338844E+016.7464789382E+00+
*       3.7057556474E+01               0
GRID*               1054               01.8600799309E+018.3332587762E+00+
*       3.8186250347E+01               0
GRID*               1055               01.9301055613E+019.4102827515E+00+
*       3.6438619138E+01               0
GRID*               1056               01.7273728357E+018.2097903959E+00+
*       3.5253991469E+01               0
GRID*               1057               0-2.254568787E+011.8212669753E+00+
*       2.1579781513E+01               0
GRID*               1058               01.8815236149E+011.0227377213E+01+
*       3.8920349193E+01               0
GRID*               1059               0-1.024526581E+011.1571178235E+01+
*       4.7877996394E+01               0
GRID*               1060               0-9.106382811E+001.3757356406E+01+
*       4.7038716901E+01               0
GRID*               1061               0-8.915218733E+001.1119951940E+01+
*       4.6607396914E+01               0
GRID*               1062               02.2061536841E+011.3607472440E+01+
*       1.6234830896E+00               0
GRID*               1063               0-1.969673185E+011.3363110872E+00+
*       2.7407414553E+01               0
GRID*               1064               0-2.110503309E+013.9710043342E+00+
*       2.0124636808E+01               0
GRID*               1065               0-2.073429862E+011.3811292812E+00+
*       1.9659126211E+01               0
GRID*               1066               0-2.044577952E+012.2533757843E+00+
*       2.5321651342E+01               0
GRID*               1067               0-2.201744087E+013.5535670289E+00+
*       2.5984685809E+01               0
GRID*               1068               0-1.311626201E+011.1283223884E+01+
*       5.6467786255E+00               0
GRID*               1069               0-1.276211051E+018.5439416972E+00+
*       3.6254909965E+00               0
GRID*               1070               0-7.146468031E+006.4417401377E+00+
*       5.3603491495E+00               0
GRID*               1071               0-1.109885729E+011.1144240149E+01+
*       4.9762628860E+00               0
GRID*               1072               0-8.824661604E+001.0765782212E+01+
*       3.0221056660E+00               0
GRID*               1073               0-1.062632838E+018.8132667056E+00+
*       3.2691355155E+00               0
GRID*               1074               03.4994882869E+001.3345008525E+01+
*       3.2619361244E+01               0
GRID*               1075               0-2.005183772E+011.6496731278E+00+
*       1.7285053394E+01               0
GRID*               1076               0-1.411974847E+011.0036035448E+01+
*       7.4537360744E+00               0
GRID*               1077               02.1653527134E+016.3330568141E+00+
*       1.7441870428E+01               0
GRID*               1078               01.9873716572E+015.1340394875E+00+
*       1.5194865500E+01               0
GRID*               1079               01.8479437145E+017.3809247855E+00+
*       1.6829840547E+01               0
GRID*               1080               02.1116799919E+017.7112462869E+00+
*       1.5214455248E+01               0
GRID*               1081               02.4511418267E+017.2978673812E+00+
*       1.5713399115E+01               0
GRID*               1082               02.2693640951E+018.1761152494E+00+
*       1.7756686388E+01               0
GRID*               1083               02.4300638962E+017.2298799076E+00+
*       1.7898822943E+01               0
GRID*               1084               02.4449691175E+015.0619371365E+00+
*       1.6748309352E+01               0
GRID*               1085               02.1781299101E+013.7518903313E+00+
*       1.7472598311E+01               0
GRID*               1086               02.2417604001E+014.3735915320E+00+
*       1.5559501463E+01               0
GRID*               1087               04.0193155104E+00-8.658031882E+00+
*       4.7067713716E+01               0
GRID*               1088               01.4594699612E+00-7.358185692E+00+
*       4.6537110508E+01               0
GRID*               1089               01.9355910068E+00-8.392572742E+00+
*       4.9109622386E+01               0
GRID*               1090               0-5.549909245E-01-6.247587141E+00+
*       4.5967780060E+01               0
GRID*               1091               09.7435966366E+007.1793499478E+00+
*       3.5903076481E+01               0
GRID*               1092               0-7.498279311E-014.0976913772E+00+
*       3.7646762035E+01               0
GRID*               1093               0-3.055079942E+004.2890365905E+00+
*       3.9180217890E+01               0
GRID*               1094               0-1.829045647E+002.0252969007E+00+
*       3.9369448183E+01               0
GRID*               1095               0-4.893978323E+001.3917966034E+00+
*       3.9256708349E+01               0
GRID*               1096               0-6.138829274E+004.7660906301E+00+
*       3.6601132272E+01               0
GRID*               1097               0-2.152473921E+007.3357991994E+00+
*       3.7704593333E+01               0
GRID*               1098               0-4.455657403E+003.4025209593E+00+
*       3.7402855216E+01               0
GRID*               1099               04.7280574179E+002.4880642145E+00+
*       7.4886789452E+00               0
GRID*               1100               03.9499240847E+005.2797929524E+00+
*       9.4505013545E+00               0
GRID*               1101               04.4689094701E+002.1146853979E+00+
*       9.4674475343E+00               0
GRID*               1102               06.3759074567E+005.2096405128E+00+
*       8.4102262656E+00               0
GRID*               1103               05.8480524343E+002.8541603813E+00+
*       1.0580401592E+01               0
GRID*               1104               08.9617636684E+004.2849189258E+00+
*       9.7740831515E+00               0
GRID*               1105               06.2144134493E+004.9651586796E+00+
*       1.1179184853E+01               0
GRID*               1106               08.4063507228E+004.4953915876E+00+
*       7.4304287803E+00               0
GRID*               1107               06.6209181498E+001.9432180092E+00+
*       9.1100136319E+00               0
GRID*               1108               01.2112040667E+011.0296589478E+01+
*       2.2694230760E+01               0
GRID*               1109               01.3825978038E+018.9204947140E+00+
*       2.1204633873E+01               0
GRID*               1110               01.1521674336E+018.3844708942E+00+
*       2.2567163627E+01               0
GRID*               1111               01.4130711059E+016.3563519618E+00+
*       2.2734539379E+01               0
GRID*               1112               01.3787365875E+011.1417790902E+01+
*       2.3154367586E+01               0
GRID*               1113               07.1794554357E+001.0614226638E+01+
*       4.0598774344E+01               0
GRID*               1114               0-1.398298261E+011.3584903249E+01+
*       1.6589337536E+00               0
GRID*               1115               0-1.529842219E+011.3422961302E+01+
*       3.8666167691E+00               0
GRID*               1116               0-1.714836773E+011.1986700883E+01+
*       1.5794551970E+00               0
GRID*               1117               0-1.768271397E+019.8237616208E+00+
*       1.4496287474E+00               0
GRID*               1118               0-1.919750180E+011.1973845084E+01+
*       1.7069681405E+00               0
GRID*               1119               06.0089911671E+001.0848735753E+01+
*       3.8395724867E+01               0
GRID*               1120               02.9567884147E+003.1432405512E+00+
*       1.7484522685E+01               0
GRID*               1121               02.8632576381E+001.7422827047E+00+
*       1.9339664119E+01               0
GRID*               1122               01.8004578975E+001.6869574060E+00+
*       1.7924228075E+01               0
GRID*               1123               0-1.343833401E+016.8530914658E+00+
*       1.5646338245E+00               0
GRID*               1124               0-1.158775391E+019.5318456024E+00+
*       1.3936218533E+00               0
GRID*               1125               0-1.116525286E+016.9362510343E+00+
*       1.2781411279E+00               0
GRID*               1126               04.3991366541E+002.1028680229E+00+
*       1.9106808642E+01               0
GRID*               1127               04.6383109053E+002.3787042359E+00+
*       1.7352662223E+01               0
GRID*               1128               01.8618611723E+004.1618274980E+00+
*       1.6400449875E+01               0
GRID*               1129               04.4763807469E+004.1746113959E+00+
*       1.6054470467E+01               0
GRID*               1130               02.4051737987E+011.3705868782E+01+
*       1.4821512154E+00               0
GRID*               1131               02.3207334779E+011.1795512529E+01+
*       1.5657270434E+00               0
GRID*               1132               0-8.403529988E+001.9323012755E+00+
*       3.4237046940E+01               0
GRID*               1133               01.0405397229E+017.4075074715E+00+
*       8.4082254524E+00               0
GRID*               1134               01.2091982994E+014.6525097637E+00+
*       9.9796480444E+00               0
GRID*               1135               0-5.142497918E+004.4410351862E+00+
*       1.9229607596E+01               0
GRID*               1136               04.7567514493E+001.3279643772E+01+
*       8.8113749309E+00               0
GRID*               1137               0-6.375335853E+003.1561838644E+00+
*       1.4694461680E+01               0
GRID*               1138               0-8.224602647E+008.2873684603E+00+
*       1.4574398869E+01               0
GRID*               1139               0-7.764922183E+005.3902802017E+00+
*       1.3128498553E+01               0
GRID*               1140               0-8.086238252E+004.7409187538E+00+
*       1.9527998194E+01               0
GRID*               1141               0-3.600326889E+004.6504266728E+00+
*       9.3759726806E+00               0
GRID*               1142               0-4.812101362E+007.4379938518E+00+
*       1.0694145338E+01               0
GRID*               1143               0-3.277082158E+001.0728441813E+01+
*       1.1078659771E+01               0
GRID*               1144               07.6089835591E+003.6049647124E+00+
*       4.9931957827E+01               0
GRID*               1145               09.1739116146E+001.3250768727E+00+
*       5.1108919014E+01               0
GRID*               1146               07.3631745578E+002.5277357435E+00+
*       5.2267987203E+01               0
GRID*               1147               05.4074263804E+001.3250410666E+00+
*       5.1261436589E+01               0
GRID*               1148               06.6038550352E+002.5457375397E+00+
*       4.9025007054E+01               0
GRID*               1149               0-4.966472523E+001.3321605667E+01+
*       3.0333243605E+01               0
GRID*               1150               0-3.538933648E+001.1068707620E+01+
*       3.0464480117E+01               0
GRID*               1151               0-3.299815144E+001.3176913805E+01+
*       3.2220710510E+01               0
GRID*               1152               0-5.835064724E+001.3382905798E+01+
*       3.2688066680E+01               0
GRID*               1153               0-1.562353834E+001.2591734722E+01+
*       3.3380205493E+01               0
GRID*               1154               0-9.008250152E-011.0430646833E+01+
*       2.8455299468E+01               0
GRID*               1155               08.6259720600E-019.8190205240E+00+
*       2.8563342197E+01               0
GRID*               1156               01.5910383255E+006.3080438017E+00+
*       2.8182690017E+01               0
GRID*               1157               0-1.390098683E+011.1220454544E+01+
*       3.5047708669E+00               0
GRID*               1158               0-1.196484936E+011.3481802587E+01+
*       4.5997244822E+00               0
GRID*               1159               0-1.391181366E+019.3821693253E+00+
*       1.5140322884E+00               0
GRID*               1160               02.8641867513E+004.7672895640E+00+
*       3.0062516803E+01               0
GRID*               1161               07.8226196966E-014.2574292324E+00+
*       2.9030929029E+01               0
GRID*               1162               0-9.953025846E+001.3376960190E+01+
*       1.3916329198E+00               0
GRID*               1163               07.7582006339E+004.8657376007E+00+
*       3.5862180828E+01               0
GRID*               1164               0-8.409246255E+008.4034217229E+00+
*       1.1845176409E+01               0
GRID*               1165               0-7.175419428E+006.8473532875E+00+
*       1.0146014784E+01               0
GRID*               1166               0-6.203816057E+009.9356248893E+00+
*       1.2113822427E+01               0
GRID*               1167               0-7.136206056E+001.0428329000E+01+
*       9.6088358647E+00               0
GRID*               1168               0-1.232938591E+011.3146004719E+01+
*       3.2126377082E+01               0
GRID*               1169               0-1.313592661E+011.2903635961E+01+
*       3.0122245560E+01               0
GRID*               1170               0-1.431298168E+015.8027375096E+00+
*       2.5291966915E+01               0
GRID*               1171               0-1.597391183E+011.0085590393E+01+
*       2.6340978309E+01               0
GRID*               1172               0-1.351474210E+013.8448840887E+00+
*       1.8218068218E+01               0
GRID*               1173               0-1.553824328E+016.6825072241E+00+
*       1.3728841021E+01               0
GRID*               1174               0-1.364959302E+014.0177773404E+00+
*       1.4963877487E+01               0
GRID*               1175               0-1.388742283E+014.3317201748E+00+
*       1.3023484876E+01               0
GRID*               1176               0-1.122819955E+014.0841907093E+00+
*       1.8781328634E+01               0
GRID*               1177               02.0426437265E+014.1364812689E+00+
*       1.8829072919E+01               0
GRID*               1178               01.9966465831E+011.6683114680E+00+
*       1.7642853276E+01               0
GRID*               1179               02.1615642505E+011.6637253097E+00+
*       1.9089611047E+01               0
GRID*               1180               01.9528131030E+011.4039164139E+00+
*       1.9267655290E+01               0
GRID*               1181               0-1.184114207E+011.2889991451E+01+
*       3.4055543686E+01               0
GRID*               1182               02.1984905687E+011.2903115769E+00+
*       1.7287354345E+01               0
GRID*               1183               02.0645896828E+011.7325496595E+00+
*       1.5787955223E+01               0
GRID*               1184               0-1.439677773E+014.6007082653E+00+
*       2.0166753549E+01               0
GRID*               1185               0-1.435224034E+011.0789773592E+01+
*       1.7349341127E+01               0
GRID*               1186               0-1.574882288E+018.0887722298E+00+
*       1.8900894371E+01               0
GRID*               1187               0-1.382401616E+011.0489736592E+01+
*       1.8957223685E+01               0
GRID*               1188               07.8483539666E+001.3314575024E+01+
*       6.0440441830E+01               0
GRID*               1189               01.2774856835E+011.3228389705E+01+
*       2.5814932604E+01               0
GRID*               1190               01.0912019908E+011.3409881124E+01+
*       2.7555664390E+01               0
GRID*               1191               02.5336078363E+011.3253863391E+01+
*       3.4478765840E+00               0
GRID*               1192               01.2278718016E+011.2552084842E+01+
*       2.8110999907E+01               0
GRID*               1193               0-1.072215113E+004.4077004259E+00+
*       1.7242099909E+01               0
GRID*               1194               0-6.144845880E-017.6044372354E+00+
*       1.8417627175E+01               0
GRID*               1195               02.1359712848E+006.6161396907E+00+
*       1.6919711230E+01               0
GRID*               1196               07.2521444324E-019.5502160005E+00+
*       1.6372001784E+01               0
GRID*               1197               0-2.522251794E+009.5800575551E+00+
*       1.9260235619E+01               0
GRID*               1198               0-2.461466080E+009.8896061588E+00+
*       2.9918426053E+01               0
GRID*               1199               0-3.058312615E+001.0384904858E+01+
*       2.8044176601E+01               0
GRID*               1200               0-1.571961617E+001.0127964106E+01+
*       2.6065049749E+01               0
GRID*               1201               04.3155604675E-017.4195763193E+00+
*       2.6298469812E+01               0
GRID*               1202               01.1296179233E+013.1962605729E+00+
*       4.6425769006E+01               0
GRID*               1203               01.4441079805E+015.6370037991E+00+
*       4.6234745590E+01               0
GRID*               1204               0-1.785133797E+011.0158280770E+01+
*       3.5081408756E+01               0
GRID*               1205               0-1.717769572E+018.6013455798E+00+
*       3.6073576150E+01               0
GRID*               1206               0-1.876913165E+019.8431919023E+00+
*       3.8253529199E+01               0
GRID*               1207               01.0030842741E+014.3065065561E+00+
*       3.8407305460E+01               0
GRID*               1208               02.1139731683E+015.0734608953E+00+
*       2.8283893992E+01               0
GRID*               1209               01.0606441885E+011.6946177859E+00+
*       4.2165068398E+01               0
GRID*               1210               03.7948295885E+001.3822304425E+00+
*       5.9659902562E+01               0
GRID*               1211               04.5282860043E+005.6488952765E+00+
*       2.8430164154E+01               0
GRID*               1212               07.3478244293E+001.0320297927E+01+
*       2.9882306625E+01               0
GRID*               1213               09.8735782632E+001.0723162193E+01+
*       2.9629509087E+01               0
GRID*               1214               07.8465130610E+008.4555723341E+00+
*       3.1634516479E+00               0
GRID*               1215               06.6848070122E+001.0200078380E+01+
*       6.3556329071E+00               0
GRID*               1216               05.9245708170E+001.0542124153E+01+
*       8.0537205461E+00               0
GRID*               1217               08.9559947521E+001.0066709386E+01+
*       7.8638026464E+00               0
GRID*               1218               07.0692627052E+001.2473501580E+01+
*       8.5045693059E+00               0
GRID*               1219               08.8056822189E+008.9973027899E+00+
*       5.9104776248E+00               0
GRID*               1220               06.8523092321E+007.9177288037E+00+
*       7.5730922549E+00               0
GRID*               1221               08.1029598259E+004.6800249509E+00+
*       3.9900398362E+01               0
GRID*               1222               0-2.154713617E+016.5551188975E+00+
*       2.6532951285E+01               0
GRID*               1223               0-1.606595118E+011.7366891127E+00+
*       2.4950936273E+01               0
GRID*               1224               0-1.845356200E+011.3007810714E+00+
*       2.5701599709E+01               0
GRID*               1225               0-1.370853142E+011.0508761469E+01+
*       1.2326630541E+01               0
GRID*               1226               0-1.629113040E+011.0223229807E+01+
*       1.0285771762E+01               0
GRID*               1227               0-1.049971844E+014.6120883348E+00+
*       9.3139724935E+00               0
GRID*               1228               0-1.226933350E+011.7228029896E+00+
*       3.7177480648E+01               0
GRID*               1229               01.6723298226E+013.4030283781E+00+
*       1.4170972122E+00               0
GRID*               1230               01.7591079403E+015.7893762584E+00+
*       1.4816219148E+00               0
GRID*               1231               08.8812765322E+007.3652739444E+00+
*       1.0069934381E+01               0
GRID*               1232               01.0573466846E+015.1805274856E+00+
*       1.0774220335E+01               0
GRID*               1233               0-8.582717842E+002.2202298373E+00+
*       1.2714521681E+01               0
GRID*               1234               01.0385844913E+011.0060068960E+01+
*       1.0751933310E+01               0
GRID*               1235               01.1473349140E+011.0507455521E+01+
*       8.4693413023E+00               0
GRID*               1236               01.0921245040E+019.1458821191E+00+
*       6.0131113630E+00               0
GRID*               1237               09.1802855401E+006.7111616312E+00+
*       5.4731523048E+00               0
GRID*               1238               01.3184478654E+016.7499529048E+00+
*       2.0957495413E+01               0
GRID*               1239               01.4537584375E+016.1001685833E+00+
*       2.0763192620E+01               0
GRID*               1240               01.2373400321E+015.1452228376E+00+
*       2.2282026778E+01               0
GRID*               1241               01.2793778692E+013.8337597689E+00+
*       2.0161915857E+01               0
GRID*               1242               01.4443868326E+013.0191164849E+00+
*       1.8907055702E+01               0
GRID*               1243               01.6161468429E+011.3753535608E+00+
*       2.0744195493E+00               0
GRID*               1244               01.3916895006E+012.7855319848E+00+
*       1.7799340849E+00               0
GRID*               1245               0-5.805950232E+001.2403791731E+01+
*       1.5398668861E+01               0
GRID*               1246               0-5.026202473E+001.3060198347E+01+
*       1.3780833955E+01               0
GRID*               1247               0-4.662856056E+001.0906850468E+01+
*       1.4397692772E+01               0
GRID*               1248               0-7.040250005E+001.3399744122E+01+
*       1.3338477894E+01               0
GRID*               1249               0-8.431312263E+001.0822739291E+01+
*       1.3218211511E+01               0
GRID*               1250               0-4.329630550E+001.3694243853E+01+
*       1.6163650993E+01               0
GRID*               1251               0-6.969520080E+001.3100048379E+01+
*       1.7131454632E+01               0
GRID*               1252               02.0044089006E+013.7271220317E+00+
*       2.9624681316E+00               0
GRID*               1253               01.8666221969E+011.8212395318E+00+
*       1.9878691854E+00               0
GRID*               1254               01.9709205803E+011.4050815481E+00+
*       4.5085614291E+00               0
GRID*               1255               01.7610650490E+011.9157098668E+00+
*       3.9780525467E+00               0
GRID*               1256               0-1.601080023E+011.3378872938E+01+
*       1.5228775873E+00               0
GRID*               1257               01.7843109039E+011.3246131450E+01+
*       2.6997746549E+01               0
GRID*               1258               01.9960721017E+018.6113514845E+00+
*       2.6847071715E+01               0
GRID*               1259               01.9354111620E+016.9236051759E+00+
*       2.8710856338E+01               0
GRID*               1260               0-1.906707964E+011.3521344780E+01+
*       3.5707303934E+00               0
GRID*               1261               0-6.160838419E+001.0656900034E+01+
*       5.0455182132E+01               0
GRID*               1262               0-4.672274751E+007.7746755862E+00+
*       5.0423233636E+01               0
GRID*               1263               0-6.943038906E+001.1064171284E+01+
*       5.2434822711E+01               0
GRID*               1264               0-8.278012780E+009.4608678735E+00+
*       5.1457798197E+01               0
GRID*               1265               0-8.095375380E+001.3466227778E+01+
*       5.2042328184E+01               0
GRID*               1266               0-7.043885049E+001.3121160523E+01+
*       5.4602245420E+01               0
GRID*               1267               0-5.654534301E+001.2933397632E+01+
*       5.2255015876E+01               0
GRID*               1268               0-8.911155215E+001.3203501338E+01+
*       5.4062927246E+01               0
GRID*               1269               0-3.603716520E+003.7115777858E+00+
*       3.5978389467E+01               0
GRID*               1270               01.8084838675E+004.7102998597E+00+
*       3.2706725247E+01               0
GRID*               1271               01.6342619947E+005.5953892548E+00+
*       3.5613147900E+01               0
GRID*               1272               0-1.092830701E-017.4537765453E+00+
*       3.7258970576E+01               0
GRID*               1273               0-1.756036218E+011.1475477053E+01+
*       4.7424956241E+00               0
GRID*               1274               01.9741484056E+008.2771290446E+00+
*       3.5765957544E+01               0
GRID*               1275               0-9.843865460E+007.7787115225E+00+
*       3.2604195386E+01               0
GRID*               1276               0-2.038284209E+011.1707555997E+01+
*       4.2802629273E+00               0
GRID*               1277               0-2.045854316E+011.3730697011E+01+
*       5.4753478729E+00               0
GRID*               1278               0-8.791432327E+001.0570382488E+01+
*       3.4298121512E+01               0
GRID*               1279               03.0329169753E+002.2123017268E+00+
*       4.4596841822E+01               0
GRID*               1280               01.6963496317E+001.5377391820E+00+
*       4.3174534188E+01               0
GRID*               1281               05.8209491898E-011.8121988091E+00+
*       4.5072724382E+01               0
GRID*               1282               02.7878825423E+002.4775213002E+00+
*       4.2292785215E+01               0
GRID*               1283               05.9933792572E+001.2099832890E+00+
*       3.9969821561E+00               0
GRID*               1284               08.7184784733E+001.2669053473E+00+
*       3.6976523333E+00               0
GRID*               1285               07.6534330204E+001.4188781135E+00+
*       5.5272202619E+00               0
GRID*               1286               0-6.150339021E+003.2841294100E+00+
*       3.0654322738E+01               0
GRID*               1287               0-7.254285949E+001.6500438384E+00+
*       3.2348100762E+01               0
GRID*               1288               0-5.022576678E+002.1500115614E+00+
*       3.3560577645E+01               0
GRID*               1289               0-7.935992630E+004.5813697466E+00+
*       2.9006170913E+01               0
GRID*               1290               0-6.723598257E+002.0804966274E+00+
*       2.8423691221E+01               0
GRID*               1291               0-8.355433374E+001.6962593653E+00+
*       3.0692043095E+01               0
GRID*               1292               01.5541569463E+011.3422636839E+01+
*       3.2466666147E+01               0
GRID*               1293               01.3186077403E+011.1861165795E+01+
*       3.2801223032E+01               0
GRID*               1294               01.4129288458E+011.2398321978E+01+
*       3.0594192865E+01               0
GRID*               1295               0-9.004766125E+004.7289890686E+00+
*       3.0893541773E+01               0
GRID*               1296               0-6.834047310E+005.1233126893E+00+
*       5.3563762690E+01               0
GRID*               1297               0-7.025820934E+004.1097767377E+00+
*       5.5796217275E+01               0
GRID*               1298               01.0379845715E+013.3002172879E+00+
*       2.6664574373E+00               0
GRID*               1299               08.2510150487E+003.2957540639E+00+
*       3.1256182834E+00               0
GRID*               1300               09.9905049268E+004.6311230487E+00+
*       1.4957778108E+00               0
GRID*               1301               08.7817264492E+003.0042068386E+00+
*       1.4045120788E+00               0
GRID*               1302               0-4.607574759E+007.9589894954E+00+
*       5.6441757734E+01               0
GRID*               1303               0-4.032435633E+001.0810534517E+01+
*       5.3990954388E+01               0
GRID*               1304               01.5818224305E+011.1650510214E+01+
*       4.1283252214E+01               0
GRID*               1305               01.5708577281E+011.3595397824E+01+
*       4.2448514054E+01               0
GRID*               1306               01.7721189413E+011.3255159114E+01+
*       4.2039711484E+01               0
GRID*               1307               01.6114232213E+014.5140513485E+00+
*       1.8867850320E+01               0
GRID*               1308               01.5098765350E+013.9181916142E+00+
*       2.1160025912E+01               0
GRID*               1309               01.3164173826E+013.8268963416E+00+
*       2.2498640624E+01               0
GRID*               1310               01.2828033610E+014.1307481387E+00+
*       2.5214381811E+01               0
GRID*               1311               01.4747179190E+014.2951927426E+00+
*       2.3876722903E+01               0
GRID*               1312               08.4365902116E+001.1399676023E+01+
*       6.2154772145E+00               0
GRID*               1313               01.5922408575E+001.8923664705E+00+
*       3.7292004905E+01               0
GRID*               1314               01.8712233889E+018.1286991218E+00+
*       9.9245730978E+00               0
GRID*               1315               01.6559546607E+011.1118228659E+01+
*       1.1546986632E+01               0
GRID*               1316               01.9149948725E+011.0479271530E+01+
*       1.0936613647E+01               0
GRID*               1317               07.6173605931E+003.0097467547E+00+
*       5.5448928092E+01               0
GRID*               1318               08.5987288938E+001.7708355340E+00+
*       5.3062182283E+01               0
GRID*               1319               09.1884438526E+001.5659325344E+00+
*       5.5455495534E+01               0
GRID*               1320               06.2122457004E+001.8049155303E+00+
*       5.4764358745E+01               0
GRID*               1321               01.8072248226E+017.3950270426E+00+
*       1.3006969472E+01               0
GRID*               1322               01.8572039235E+014.7730191047E+00+
*       1.0129007903E+01               0
GRID*               1323               01.0649451055E+013.8283919096E+00+
*       5.2835697515E+01               0
GRID*               1324               01.0516362792E+013.2299700202E+00+
*       5.5296457048E+01               0
GRID*               1325               03.5570432183E+001.2877383411E+01+
*       2.3214030523E+01               0
GRID*               1326               04.9469544011E+001.3393731164E+01+
*       2.3005610481E+01               0
GRID*               1327               04.3367360540E+001.3552884049E+01+
*       2.1330890609E+01               0
GRID*               1328               01.3939037387E+011.4536696158E+00+
*       2.7395458544E+01               0
GRID*               1329               0-8.231101326E+001.0545582863E+01+
*       2.5912089378E+01               0
GRID*               1330               0-7.496785266E+001.1015736145E+01+
*       2.3651378588E+01               0
GRID*               1331               0-8.807121301E+004.8145095534E+00+
*       2.3436886160E+01               0
GRID*               1332               0-8.412701759E+008.2579796346E+00+
*       2.1251040483E+01               0
GRID*               1333               09.2754359261E+003.6579290993E+00+
*       5.0389926039E+00               0
GRID*               1334               01.0855112222E+011.3483820455E+00+
*       3.5300492320E+00               0
GRID*               1335               01.1877246032E+011.9925671699E+00+
*       5.5904312773E+00               0
GRID*               1336               09.9215801389E+001.1733822947E+00+
*       5.4478905990E+00               0
GRID*               1337               02.5525187315E+011.1255044982E+01+
*       1.4402535819E+00               0
GRID*               1338               07.4795341681E+001.3671920593E+00+
*       2.1450803388E+00               0
GRID*               1339               06.7867369267E+003.1535495665E+00+
*       1.6543554446E+00               0
GRID*               1340               0-1.085216367E+011.0536088249E+01+
*       3.4065509194E+01               0
GRID*               1341               0-1.159358190E+011.0603092748E+01+
*       3.2119495860E+01               0
GRID*               1342               0-1.317839601E+017.2401467206E+00+
*       3.2854851347E+01               0
GRID*               1343               0-1.434469090E+011.0422566155E+01+
*       3.1909893702E+01               0
GRID*               1344               0-1.201387969E+014.7302499032E+00+
*       3.1786165062E+01               0
GRID*               1345               01.3516107469E+011.5544632283E+00+
*       3.4763873834E+01               0
GRID*               1346               07.4882527135E+001.3174189438E+01+
*       1.3324604955E+01               0
GRID*               1347               09.7065465917E+001.0612065189E+01+
*       1.4187366382E+01               0
GRID*               1348               04.3531599771E+001.2718227551E+01+
*       1.4807829878E+01               0
GRID*               1349               06.7565156430E+001.2924277997E+01+
*       1.5071397389E+01               0
GRID*               1350               09.5582540990E+001.2869455754E+01+
*       1.2770624391E+01               0
GRID*               1351               03.2028567973E+009.6399784938E+00+
*       1.2870340665E+01               0
GRID*               1352               05.3172643192E+001.0419955023E+01+
*       1.2456895020E+01               0
GRID*               1353               02.8317059548E+001.2840480162E+01+
*       1.2754042208E+01               0
GRID*               1354               03.8254088995E+001.0340763988E+01+
*       1.5019830130E+01               0
GRID*               1355               04.8427087384E+001.2918631423E+01+
*       1.2127570944E+01               0
GRID*               1356               0-4.787609369E+00-2.663468369E+00+
*       5.0442158568E+01               0
GRID*               1357               0-5.730835533E+00-1.697323006E+00+
*       5.2683493465E+01               0
GRID*               1358               0-4.155525239E+008.6903406023E-01+
*       5.0453760491E+01               0
GRID*               1359               0-4.842739499E+001.3738199328E+00+
*       5.2804886712E+01               0
GRID*               1360               02.3535323400E+011.2693758282E+01+
*       2.0346403540E+01               0
GRID*               1361               02.2835426090E+011.0261697209E+01+
*       2.1683773757E+01               0
GRID*               1362               0-4.821838919E+00-1.620111388E+00+
*       5.4583775291E+01               0
GRID*               1363               0-8.359109103E-01-1.620937511E+01+
*       4.7949584109E+01               0
GRID*               1364               0-2.193344377E+00-1.598404650E+01+
*       4.6272522337E+01               0
GRID*               1365               01.4743992146E+00-1.429805963E+01+
*       4.7385631002E+01               0
GRID*               1366               01.9709373347E+00-1.625554376E+01+
*       5.6159529989E+01               0
GRID*               1367               0-9.104420397E-01-1.694668984E+01+
*       5.7307971656E+01               0
GRID*               1368               01.1920300714E+00-1.489460270E+01+
*       5.7693607818E+01               0
GRID*               1369               02.0014578873E+011.1106453473E+01+
*       1.4939723749E+01               0
GRID*               1370               02.1724546614E+011.1395476522E+01+
*       1.7048480068E+01               0
GRID*               1371               02.2143318007E+011.3575545396E+01+
*       1.5443944632E+01               0
GRID*               1372               02.0043291521E+011.3479897971E+01+
*       1.5782345094E+01               0
GRID*               1373               01.2050416108E+00-1.311762766E+01+
*       5.5939004236E+01               0
GRID*               1374               04.2332767178E+00-1.422362205E+01+
*       5.5798866023E+01               0
GRID*               1375               03.4577616787E+00-1.755285203E+01+
*       5.6634372495E+01               0
GRID*               1376               0-3.130308511E-01-1.553004486E+01+
*       5.4809729783E+01               0
GRID*               1377               0-5.965913230E-02-1.256288721E+01+
*       5.7713972205E+01               0
GRID*               1378               01.3124360623E+011.3172354400E+01+
*       9.7850931172E+00               0
GRID*               1379               0-1.285718801E+014.9357828087E+00+
*       2.2521137940E+01               0
GRID*               1380               0-1.229231276E+011.4724004672E+00+
*       2.2625752112E+01               0
GRID*               1381               0-1.069314420E+012.1250766369E+00+
*       2.2721407820E+01               0
GRID*               1382               0-1.196267767E+011.9947632229E+00+
*       2.4522440883E+01               0
GRID*               1383               04.6146034693E+00-1.856453665E+01+
*       5.1312629345E+01               0
GRID*               1384               0-2.558240549E+018.6461421219E+00+
*       9.6377899876E+00               0
GRID*               1385               0-2.687609992E+018.6044957236E+00+
*       5.5164791918E+00               0
GRID*               1386               02.0770623372E+011.3088134653E+01+
*       1.7476949417E+01               0
GRID*               1387               0-2.626623780E+018.3962657577E+00+
*       7.4666213480E+00               0
GRID*               1388               01.5581096443E+012.5140780479E+00+
*       5.0570915385E+01               0
GRID*               1389               02.0348201408E+011.4122248927E+00+
*       2.3137073310E+01               0
GRID*               1390               01.7791303299E+011.4363290653E+00+
*       2.4505814092E+01               0
GRID*               1391               0-2.699963532E+016.1192612732E+00+
*       6.1784848141E+00               0
GRID*               1392               05.7091616195E+004.9219939239E+00+
*       4.3397546956E+01               0
GRID*               1393               05.2217043796E+001.9794164064E+00+
*       4.2238376058E+01               0
GRID*               1394               06.2239452306E+005.5471039693E+00+
*       4.1347687479E+01               0
GRID*               1395               05.7348797200E+001.8818549021E+00+
*       4.0226899759E+01               0
GRID*               1396               02.6258171200E+011.3204636493E+01+
*       1.4831282895E+00               0
GRID*               1397               0-9.163097291E+006.2710537542E+00+
*       5.7861995776E+01               0
GRID*               1398               0-8.231937942E+008.0236514538E+00+
*       5.9192450197E+01               0
GRID*               1399               0-1.175565630E+011.0538088400E+01+
*       5.5517435537E+01               0
GRID*               1400               0-1.183072694E+011.0491533701E+01+
*       5.8830236693E+01               0
GRID*               1401               0-1.067552626E+018.6766783946E+00+
*       5.9336955398E+01               0
GRID*               1402               0-1.507320337E+011.0153048039E+01+
*       1.4372022451E+01               0
GRID*               1403               0-1.607828981E+019.8678763222E+00+
*       1.2599996793E+01               0
GRID*               1404               06.4048502826E+001.1792567274E+01+
*       5.3231770603E+01               0
GRID*               1405               06.9146101540E+001.3108604501E+01+
*       5.5302651621E+01               0
GRID*               1406               01.4695582093E+011.3382014490E+01+
*       4.4430315988E+01               0
GRID*               1407               01.3208206710E+011.3455460757E+01+
*       4.5962285906E+01               0
GRID*               1408               01.3625269665E+011.3547804123E+01+
*       4.2536510784E+01               0
GRID*               1409               01.5171700374E+011.0792008088E+01+
*       4.3597477528E+01               0
GRID*               1410               01.7251875994E+011.1665405152E+01+
*       4.3152789167E+01               0
GRID*               1411               01.7299313091E+019.3314022691E+00+
*       4.4095008432E+01               0
GRID*               1412               01.7976024125E+019.4658757730E+00+
*       4.2074949354E+01               0
GRID*               1413               05.0424703469E+001.3629697573E+01+
*       5.7045569589E+01               0
GRID*               1414               0-1.725020974E+011.0839184052E+01+
*       2.1112967663E+01               0
GRID*               1415               0-1.480586968E+011.0154990021E+01+
*       2.2926485603E+01               0
GRID*               1416               0-1.473472961E+011.0973452659E+01+
*       2.0898544767E+01               0
GRID*               1417               0-1.580298778E+011.2862615422E+01+
*       2.2616818414E+01               0
GRID*               1418               0-1.558037325E+011.2893326763E+01+
*       2.1046534225E+01               0
GRID*               1419               0-1.864868918E+011.3517376763E+01+
*       2.1229916435E+01               0
GRID*               1420               01.2743719091E+013.5755083711E+00+
*       1.7285922250E+01               0
GRID*               1421               09.1343045221E+005.8717402691E+00+
*       1.4682019739E+01               0
GRID*               1422               02.2709232790E+018.1798208878E+00+
*       4.8410825361E+00               0
GRID*               1423               02.0647012840E+011.0845220600E+01+
*       6.1084605433E+00               0
GRID*               1424               02.3646972744E+014.6913515655E+00+
*       4.2745322766E+00               0
GRID*               1425               02.4279464621E+016.8688976805E+00+
*       6.1519925711E+00               0
GRID*               1426               02.1658852444E+011.0022196948E+01+
*       3.6897934169E+00               0
GRID*               1427               02.0479954279E+018.0525062105E+00+
*       3.6830252550E+00               0
GRID*               1428               0-1.842603306E+019.0229817959E+00+
*       1.9530284979E+01               0
GRID*               1429               0-2.092159097E+011.0881779093E+01+
*       1.9866623797E+01               0
GRID*               1430               0-1.792302463E+011.2792966362E+01+
*       1.8746819324E+01               0
GRID*               1431               0-1.580798807E+011.1597122444E+01+
*       1.9209240814E+01               0
GRID*               1432               0-1.827352710E+011.1499841200E+01+
*       2.3221791771E+01               0
GRID*               1433               0-1.629605951E+011.3242778066E+01+
*       1.9578548096E+01               0
GRID*               1434               0-2.122344932E+014.0143001571E+00+
*       1.0594882424E+01               0
GRID*               1435               0-1.829453137E+011.0195822201E+01+
*       1.2012870181E+01               0
GRID*               1436               0-1.391000044E+017.8480674071E+00+
*       5.0929372118E+01               0
GRID*               1437               0-1.475710223E+018.6208581730E+00+
*       5.3882593553E+01               0
GRID*               1438               0-1.540523588E+019.7587197881E+00+
*       5.2588283892E+01               0
GRID*               1439               0-1.530861031E+017.0403150435E+00+
*       5.2880927600E+01               0
GRID*               1440               0-1.546073336E+011.3541836716E+01+
*       4.0721469459E+01               0
GRID*               1441               02.1680507296E+014.9065879649E+00+
*       2.6338993357E+01               0
GRID*               1442               02.0083108393E+013.3679116449E+00+
*       2.5139249368E+01               0
GRID*               1443               01.9917542726E+015.9219063317E+00+
*       2.5995508819E+01               0
GRID*               1444               02.2151331423E+016.5867734070E+00+
*       2.5456736169E+01               0
GRID*               1445               01.4230968019E+011.1592416641E+01+
*       4.6154476187E+01               0
GRID*               1446               01.8233013830E+013.5800682403E+00+
*       2.3182904160E+01               0
GRID*               1447               02.0926176072E+014.3157074602E+00+
*       2.2338826666E+01               0
GRID*               1448               02.2911935639E+017.5892804477E+00+
*       2.2711833452E+01               0
GRID*               1449               0-1.712541304E+011.0805992382E+01+
*       7.4417668925E+00               0
GRID*               1450               0-2.010135324E+014.0883104742E+00+
*       3.4362052645E+00               0
GRID*               1451               0-1.936689195E+012.1402812430E+00+
*       9.3461264616E+00               0
GRID*               1452               0-1.723704132E+012.1517034381E+00+
*       9.6126232240E+00               0
GRID*               1453               0-2.338284976E+012.0084469776E+00+
*       1.0877033255E+01               0
GRID*               1454               0-2.354872444E+011.5093868528E+00+
*       8.1897157446E+00               0
GRID*               1455               0-2.197848753E+011.2363178770E+00+
*       9.1381650752E+00               0
GRID*               1456               0-2.126638014E+011.4002569470E+00+
*       1.1407251538E+01               0
GRID*               1457               0-2.355539212E+013.4932703874E+00+
*       1.2672599479E+01               0
GRID*               1458               0-2.335587056E+015.3827421479E+00+
*       1.1494283267E+01               0
GRID*               1459               0-1.648931485E+011.0552198094E+01+
*       1.6841900469E+01               0
GRID*               1460               02.3809438520E+011.1392859031E+01+
*       9.5996140392E+00               0
GRID*               1461               02.4391309563E+011.3453882097E+01+
*       9.1680413554E+00               0
GRID*               1462               02.3592038812E+011.3247693959E+01+
*       7.5902946978E+00               0
GRID*               1463               02.2066084927E+011.3520880323E+01+
*       9.0800821247E+00               0
GRID*               1464               02.1766228891E+015.2045993205E+00+
*       3.6789670954E+00               0
GRID*               1465               0-7.412969121E-01-1.190229558E+01+
*       4.6377500405E+01               0
GRID*               1466               0-2.415829348E+00-1.183132692E+01+
*       4.8923732958E+01               0
GRID*               1467               0-4.720909692E+00-1.172454685E+01+
*       4.9786348504E+01               0
GRID*               1468               09.0946937284E+003.3780579612E+00+
*       4.5168798142E+01               0
GRID*               1469               01.0222349411E+011.6456868497E+00+
*       4.5734807057E+01               0
GRID*               1470               0-1.886536408E-011.5654122330E+00+
*       1.2724226295E+01               0
GRID*               1471               0-9.760415835E-011.6115243758E+00+
*       1.4869164477E+01               0
GRID*               1472               0-2.292600478E+002.0107413948E+00+
*       1.2806271364E+01               0
GRID*               1473               08.3119798587E+001.3347846536E+00+
*       4.8622080187E+01               0
GRID*               1474               06.7014796566E+005.0136194430E+00+
*       4.8228722000E+01               0
GRID*               1475               07.7577054703E+004.7313067756E+00+
*       4.6135145636E+01               0
GRID*               1476               02.6282414632E+011.1284460849E+01+
*       9.4161592705E+00               0
GRID*               1477               02.5813671130E+019.7862060783E+00+
*       1.0705502527E+01               0
GRID*               1478               07.1432398874E+001.9016130805E+00+
*       4.6878048870E+01               0
GRID*               1479               0-2.987761621E+009.7008938321E+00+
*       4.8149354780E+01               0
GRID*               1480               02.6068143769E+00-1.485446609E+01+
*       4.6440558493E+01               0
GRID*               1481               03.1700985463E+00-1.470810011E+01+
*       4.7761977486E+01               0
GRID*               1482               02.4792494524E+00-1.200207698E+01+
*       4.6999644676E+01               0
GRID*               1483               07.0777253911E-01-1.660089385E+01+
*       4.6162707984E+01               0
GRID*               1484               0-2.550919856E+016.8663743317E+00+
*       1.7291299683E+00               0
GRID*               1485               0-2.386582854E+016.4868121714E+00+
*       2.3235722239E+00               0
GRID*               1486               0-2.499852436E+014.4333478835E+00+
*       1.4534973750E+00               0
GRID*               1487               0-2.708743211E+00-1.538798850E+01+
*       5.2488495845E+01               0
GRID*               1488               0-9.169514812E-01-1.174080720E+01+
*       5.0859966151E+01               0
GRID*               1489               0-4.734066441E-01-1.552510132E+01+
*       5.0807220213E+01               0
GRID*               1490               0-3.095908158E-01-1.375823412E+01+
*       5.2223217717E+01               0
GRID*               1491               0-1.762434832E+00-1.845266332E+01+
*       5.0340286610E+01               0
GRID*               1492               0-2.655527118E+015.1462618830E+00+
*       3.2605518660E+00               0
GRID*               1493               0-2.150244617E+00-1.362985560E+01+
*       5.3856290689E+01               0
GRID*               1494               0-5.654274695E+00-1.510542492E+01+
*       5.2499231836E+01               0
GRID*               1495               02.5472754814E+011.2705828987E+00+
*       3.0682354901E+00               0
GRID*               1496               02.6531749652E+012.7712058364E+00+
*       1.4427891460E+00               0
GRID*               1497               02.4779306342E+011.4034168274E+00+
*       5.5125281206E+00               0
GRID*               1498               02.2963946655E+013.2029706269E+00+
*       5.1951341171E+00               0
GRID*               1499               02.3070202001E+012.1698032523E+00+
*       3.5243312773E+00               0
GRID*               1500               01.3385465569E+011.3378108475E+01+
*       2.3365268731E+01               0
GRID*               1501               01.4913490452E+011.3535109487E+01+
*       2.3434682916E+01               0
GRID*               1502               02.1049923534E+011.0885166446E+01+
*       1.1899530076E+01               0
GRID*               1503               02.0840115896E+011.3453226046E+01+
*       1.3644021596E+01               0
GRID*               1504               02.2900945535E+011.1152916595E+01+
*       1.4542111308E+01               0
GRID*               1505               02.2764592061E+011.2489103394E+01+
*       1.2458425440E+01               0
GRID*               1506               02.1318226057E+011.3650331777E+01+
*       1.1464818288E+01               0
GRID*               1507               0-1.193893382E+014.3705597157E+00+
*       4.0283265825E+01               0
GRID*               1508               0-1.313844302E+014.4014467478E+00+
*       3.7714601381E+01               0
GRID*               1509               0-1.235920455E+016.8837805883E+00+
*       3.5596242986E+01               0
GRID*               1510               0-2.759783914E+013.2348550247E+00+
*       2.4599939840E+00               0
GRID*               1511               0-7.965592958E-028.6743795260E+00+
*       6.0462067055E+01               0
GRID*               1512               01.0781935804E+006.7243421024E+00+
*       6.2068995321E+01               0
GRID*               1513               0-2.509040242E+012.9836812171E+00+
*       2.6432919599E+00               0
GRID*               1514               0-2.557884415E+011.6255146461E+00+
*       4.3847440593E+00               0
GRID*               1515               0-2.416999940E+011.2196770723E+00+
*       1.8800079316E+00               0
GRID*               1516               0-2.323690163E+011.6096852880E+00+
*       3.6014366922E+00               0
GRID*               1517               0-3.643844405E+005.3261354208E+00+
*       6.3483169203E+01               0
GRID*               1518               0-3.956486307E+004.0828214881E+00+
*       6.0539415048E+01               0
GRID*               1519               0-4.329921496E+007.3941710611E+00+
*       6.2291705331E+01               0
GRID*               1520               0-1.313224883E+008.3436259698E+00+
*       6.2490862276E+01               0
GRID*               1521               0-5.689941906E+006.6599903677E+00+
*       6.0725183332E+01               0
GRID*               1522               0-1.395404275E+011.3464805816E+01+
*       3.8973706302E+01               0
GRID*               1523               01.9841122169E+011.3668969065E+01+
*       3.4618679812E+01               0
GRID*               1524               01.9685863832E+011.1700721818E+01+
*       3.5518591154E+01               0
GRID*               1525               04.0813292282E-01-1.021109353E+00+
*       4.5776529086E+01               0
GRID*               1526               0-1.512379118E+003.2778461040E-01+
*       4.6773911870E+01               0
GRID*               1527               0-4.282373667E-01-1.281256489E+00+
*       4.7594586616E+01               0
GRID*               1528               01.8067879790E+008.3670961245E-01+
*       4.7132192286E+01               0
GRID*               1529               04.0335708296E+006.6024150825E+00+
*       1.5960844821E+00               0
GRID*               1530               05.5044330139E+005.1068072157E+00+
*       1.5687026128E+00               0
GRID*               1531               06.8200309091E+005.6167956577E+00+
*       3.6135559970E+00               0
GRID*               1532               04.3454946713E+004.7579642119E+00+
*       3.3599500242E+00               0
GRID*               1533               06.7834832915E+007.4496221597E+00+
*       1.6654155284E+00               0
GRID*               1534               0-2.567422886E+011.8602234493E+00+
*       1.3873258214E+00               0
GRID*               1535               04.6035532349E+008.2217447186E+00+
*       8.3912588431E+00               0
GRID*               1536               02.8533158086E+001.0925293506E+01+
*       5.3706413291E+00               0
GRID*               1537               04.9017512940E+001.0606726581E+01+
*       5.0233626626E+00               0
GRID*               1538               0-3.489319063E+001.0146625099E+01+
*       2.1992037589E+01               0
GRID*               1539               0-2.756404690E+001.0000010155E+01+
*       2.4513661362E+01               0
GRID*               1540               01.3779261937E+011.2325544884E+01+
*       3.7527898999E+01               0
GRID*               1541               0-2.041875602E+001.0664598453E+01+
*       2.2434253664E+01               0
GRID*               1542               01.8920425618E+011.1318161746E+01+
*       3.7631872083E+01               0
GRID*               1543               01.1243474863E+014.3245667464E+00+
*       2.6382305475E+01               0
GRID*               1544               06.4886952240E+001.0355872983E+01+
*       2.7997577997E+01               0
GRID*               1545               02.1163357604E+011.7096259660E+00+
*       3.2707480845E+00               0
GRID*               1546               02.2724278156E+013.6241401263E+00+
*       1.5802759136E+00               0
GRID*               1547               02.2808313349E+011.2959313051E+00+
*       6.4940226078E+00               0
GRID*               1548               01.4647955200E+011.3792586441E+01+
*       2.0883079710E+01               0
GRID*               1549               02.5414663481E+014.7975794758E+00+
*       2.3521459686E+00               0
GRID*               1550               02.5441871276E+016.3787960070E+00+
*       1.3076076925E+00               0
GRID*               1551               02.3027366936E+016.1155221291E+00+
*       1.4712908350E+00               0
GRID*               1552               0-1.514222630E+017.2247214924E+00+
*       2.2044099709E+01               0
GRID*               1553               0-1.807883199E+013.2825749684E+00+
*       3.5370020509E+00               0
GRID*               1554               0-1.820967723E+014.6027649828E+00+
*       5.3825933698E+00               0
GRID*               1555               0-1.443435719E+013.4897895273E+00+
*       2.3499261666E+01               0
GRID*               1556               0-1.391506115E+011.2693908891E+01+
*       1.9604060124E+01               0
GRID*               1557               0-1.626216651E+016.0304405567E+00+
*       3.2907871556E+01               0
GRID*               1558               0-1.705474182E+015.3899610160E+00+
*       3.6320923678E+01               0
GRID*               1559               0-1.717390909E+013.6030832668E+00+
*       3.3674214194E+01               0
GRID*               1560               0-1.403710072E+014.9657939025E+00+
*       3.4262341488E+01               0
GRID*               1561               0-1.792608090E+016.6286698160E+00+
*       3.4486679244E+01               0
GRID*               1562               0-1.495925806E+013.9401276119E+00+
*       3.2014393192E+01               0
GRID*               1563               0-1.863876903E+016.3564587564E+00+
*       3.1814856878E+01               0
GRID*               1564               02.4794809645E+013.6872610939E+00+
*       1.4665092004E+00               0
GRID*               1565               0-1.115695048E+011.3257009964E+01+
*       2.6684856225E+01               0
GRID*               1566               0-1.011046403E+014.6996324070E+00+
*       3.6481497604E+01               0
GRID*               1567               0-1.034001380E+014.9197325136E+00+
*       4.2269605628E+01               0
GRID*               1568               0-1.148287270E+014.7109601440E+00+
*       2.8589842397E+01               0
GRID*               1569               0-1.207444153E+014.8246075722E+00+
*       2.9507865479E+01               0
GRID*               1570               0-1.012549647E+011.0485208355E+01+
*       2.7180325164E+01               0
GRID*               1571               0-2.033005547E+017.7970647788E+00+
*       3.2787587151E+01               0
GRID*               1572               0-2.032045180E+018.5885654174E+00+
*       3.0814206236E+01               0
GRID*               1573               0-1.588928244E+011.1785691737E+01+
*       3.4342847432E+01               0
GRID*               1574               0-1.719177605E+011.0753252028E+01+
*       3.2587218569E+01               0
GRID*               1575               0-1.568143556E+018.7524138792E+00+
*       3.4239626255E+01               0
GRID*               1576               02.7403446334E+016.9144008178E+00+
*       3.8344631300E+00               0
GRID*               1577               02.6996580636E+017.0714286922E+00+
*       5.4707584208E+00               0
GRID*               1578               0-1.540395169E+016.9478961824E+00+
*       3.6491323786E+01               0
GRID*               1579               0-1.330147202E+019.7263505615E+00+
*       3.5284002426E+01               0
GRID*               1580               0-2.055672327E+011.3588241501E+00+
*       1.5310510170E+01               0
GRID*               1581               0-2.124798177E+013.7413407802E+00+
*       1.3244518724E+01               0
GRID*               1582               0-2.153612202E+011.3066244121E+00+
*       1.3339692261E+01               0
GRID*               1583               0-2.265156708E+013.8016026104E+00+
*       1.5017899535E+01               0
GRID*               1584               0-1.761293865E+018.4049244445E+00+
*       3.2078815399E+01               0
GRID*               1585               02.7682002354E+015.7367480103E+00+
*       1.7703562681E+00               0
GRID*               1586               0-1.978046499E+018.5738201755E+00+
*       3.5097223638E+01               0
GRID*               1587               0-1.897203773E+011.0679698245E+01+
*       1.7242353624E+01               0
GRID*               1588               0-1.801552342E+011.0380125714E+01+
*       1.4069755477E+01               0
GRID*               1589               0-2.186916881E+019.0033314241E+00+
*       1.7797049925E+01               0
GRID*               1590               0-1.379455286E+013.8798573909E+00+
*       2.5710124703E+01               0
GRID*               1591               0-1.322790690E+014.5406806076E+00+
*       2.7851950192E+01               0
GRID*               1592               01.3427483450E+011.8041061923E+00+
*       4.5112332996E+01               0
GRID*               1593               02.3972706082E+011.4561645221E+00+
*       1.7364948926E+00               0
GRID*               1594               02.1965073229E+011.5632733302E+00+
*       1.4450815835E+00               0
GRID*               1595               02.7681780771E+011.7471633243E+00+
*       2.9590950341E+00               0
GRID*               1596               0-8.102220157E+001.2650518598E+01+
*       1.8261539592E+01               0
GRID*               1597               0-9.739553027E+001.3478227724E+01+
*       1.6445184440E+01               0
GRID*               1598               0-7.600561084E+001.2909628772E+01+
*       1.5436158675E+01               0
GRID*               1599               01.2308181203E+011.3886987246E+00+
*       2.4595920648E+00               0
GRID*               1600               01.1719504906E+015.0688311220E+00+
*       1.5041302446E+00               0
GRID*               1601               0-1.013653044E+011.3086272339E+01+
*       1.9570169828E+01               0
GRID*               1602               07.1422917643E+008.9523178870E+00+
*       6.1837345884E+01               0
GRID*               1603               04.1213185116E+009.0623773212E+00+
*       6.3433014341E+01               0
GRID*               1604               08.8412363475E+007.6809113598E+00+
*       6.1330275901E+01               0
GRID*               1605               03.8321733722E+001.0287304573E+01+
*       6.0526730180E+01               0
GRID*               1606               02.6774866994E+008.3811883760E+00+
*       6.0814618575E+01               0
GRID*               1607               01.1774408369E+005.1616400190E+00+
*       9.8603728944E+00               0
GRID*               1608               02.6449478022E+007.4223025977E+00+
*       1.0702787906E+01               0
GRID*               1609               03.5871672357E-018.1640685480E+00+
*       9.6113183429E+00               0
GRID*               1610               02.5929975235E+018.9902262819E+00+
*       1.9094174217E+00               0
GRID*               1611               02.4063221084E+011.0855081660E+01+
*       3.3737175516E+00               0
GRID*               1612               02.3552219297E+018.4399796497E+00+
*       1.5151526769E+00               0
GRID*               1613               02.4990603115E+018.2121957447E+00+
*       4.7362985286E+00               0
GRID*               1614               03.1825369558E+001.0013155120E+01+
*       7.0611018605E+00               0
GRID*               1615               01.4717937486E+015.4033221384E+00+
*       1.7572280746E+00               0
GRID*               1616               0-3.401096175E+001.1557987444E+01+
*       3.5962445110E+00               0
GRID*               1617               0-1.781063254E+003.9342521761E+00+
*       1.0699537986E+01               0
GRID*               1618               02.4396144249E+011.0080589384E+01+
*       1.3153677522E+00               0
GRID*               1619               0-1.155800642E+014.8551723546E+00+
*       3.2989977835E+00               0
GRID*               1620               01.3295999953E+00-1.939673372E+00+
*       5.5679635588E+01               0
GRID*               1621               0-1.294299274E+00-4.193933436E+00+
*       5.5138064234E+01               0
GRID*               1622               0-3.192574372E+00-3.645668822E+00+
*       5.3085093805E+01               0
GRID*               1623               0-9.477175139E-01-2.307878782E+00+
*       5.0449291464E+01               0
GRID*               1624               02.7595990438E+011.1297195796E+01+
*       2.0694966075E+00               0
GRID*               1625               02.6861326858E+011.0040061006E+01+
*       3.7729897013E+00               0
GRID*               1626               0-8.502316621E+001.0809961112E+01+
*       4.4745241183E+01               0
GRID*               1627               02.7149760264E+011.1797428309E+01+
*       5.0233980473E+00               0
GRID*               1628               02.6990641144E+019.0229308402E+00+
*       6.2530718292E+00               0
GRID*               1629               03.3630440726E+003.4333692922E+00+
*       1.0692669981E+01               0
GRID*               1630               04.0349578032E+004.3338540916E+00+
*       1.2263502961E+01               0
GRID*               1631               01.8226311475E+004.4222562152E+00+
*       1.2356387110E+01               0
GRID*               1632               02.3266238793E+001.8384747958E+00+
*       1.1552209865E+01               0
GRID*               1633               02.2652579533E+002.0624764297E+00+
*       9.3774415956E+00               0
GRID*               1634               02.1391226152E+009.4823773390E+00+
*       8.6497443757E+00               0
GRID*               1635               03.5166646232E+001.0278079773E+01+
*       1.0684172238E+01               0
GRID*               1636               02.0306549060E+001.0645591973E+01+
*       7.1893231996E+00               0
GRID*               1637               05.1988337812E-021.0505234235E+01+
*       5.3945520742E+00               0
GRID*               1638               02.6251591265E+011.1259727552E+01+
*       7.1654068137E+00               0
GRID*               1639               01.2761112661E+017.0464678904E+00+
*       3.6815662985E+01               0
GRID*               1640               01.0591482225E+015.2996403834E+00+
*       3.5655343567E+01               0
GRID*               1641               02.2831001232E+011.2843248432E+01+
*       2.2645928534E+01               0
GRID*               1642               0-6.686398024E+003.3543833995E+00+
*       1.2107288865E+01               0
GRID*               1643               0-6.255026464E+004.4613370469E+00+
*       1.0487977314E+01               0
GRID*               1644               0-7.632648049E+001.9528160329E+00+
*       1.0874184196E+01               0
GRID*               1645               0-8.563573264E+004.9117075064E+00+
*       1.0723078472E+01               0
GRID*               1646               0-6.395501310E+001.9418714993E+00+
*       1.2992136821E+01               0
GRID*               1647               0-5.370610028E+001.8317964773E+00+
*       1.1400297632E+01               0
GRID*               1648               0-7.434399727E+003.1917106219E+00+
*       1.3704503257E+01               0
GRID*               1649               0-6.151416153E+002.1133697861E+00+
*       9.8937512425E+00               0
GRID*               1650               0-4.359758103E+003.6782004978E+00+
*       1.1610370476E+01               0
GRID*               1651               0-1.789071773E+011.2572032127E+01+
*       1.4716797083E+01               0
GRID*               1652               0-1.920897708E+011.3616849876E+01+
*       1.5925107784E+01               0
GRID*               1653               0-2.047295506E+011.3164029866E+01+
*       1.7512155166E+01               0
GRID*               1654               0-2.193180620E+011.1413729260E+01+
*       1.7236027820E+01               0
GRID*               1655               0-1.934499458E+019.6385239530E+00+
*       2.2330961830E+01               0
GRID*               1656               0-2.047932093E+011.1577138953E+01+
*       2.2591178592E+01               0
GRID*               1657               0-2.228677591E+011.1775232887E+01+
*       2.4712149401E+01               0
GRID*               1658               0-2.003647006E+011.0604594366E+01+
*       2.5305978539E+01               0
GRID*               1659               0-2.250043001E+019.8553322078E+00+
*       2.2824979542E+01               0
GRID*               1660               02.2288882038E+011.0354671391E+01+
*       1.3668210472E+00               0
GRID*               1661               0-2.127305950E+018.5308580620E+00+
*       2.0979646127E+01               0
GRID*               1662               0-1.532699120E+011.1515229289E+01+
*       2.4475444363E+01               0
GRID*               1663               0-1.671537422E+011.2178256139E+01+
*       2.5686152991E+01               0
GRID*               1664               0-1.445711220E+011.1403286975E+01+
*       2.5294322062E+01               0
GRID*               1665               0-1.419613354E+011.3289653572E+01+
*       2.5036045556E+01               0
GRID*               1666               01.0084956924E+009.9175214543E+00+
*       1.4783745447E+01               0
GRID*               1667               02.6798302035E+007.1026327340E+00+
*       1.3537111266E+01               0
GRID*               1668               0-1.240509845E+011.1649423693E+01+
*       5.7555932114E+01               0
GRID*               1669               0-1.532541762E+011.0444473075E+01+
*       5.5712211159E+00               0
GRID*               1670               01.9004462462E+011.1506665778E+01+
*       3.1968748467E+01               0
GRID*               1671               01.6080549830E+019.9099257190E+00+
*       3.2139253024E+01               0
GRID*               1672               01.8069028541E+011.3374573500E+01+
*       3.2834513589E+01               0
GRID*               1673               02.0190870116E+011.3267854217E+01+
*       3.2552870130E+01               0
GRID*               1674               02.0042328914E+011.1656810067E+01+
*       3.3982623337E+01               0
GRID*               1675               02.0654720552E+011.1256247762E+01+
*       3.1718801345E+01               0
GRID*               1676               01.9108303590E+011.3310524102E+01+
*       3.0932542374E+01               0
GRID*               1677               01.8879911467E+019.6935775133E+00+
*       2.9846234449E+01               0
GRID*               1678               01.7113338775E+011.2766657370E+01+
*       3.0689347489E+01               0
GRID*               1679               0-1.024831998E+011.2073859378E+01+
*       6.0129161731E+01               0
GRID*               1680               0-8.705408287E+009.7061679210E+00+
*       6.0490082772E+01               0
GRID*               1681               01.9476299297E+011.1804003693E+01+
*       2.9857274289E+01               0
GRID*               1682               0-1.262522835E+018.0096322308E+00+
*       5.7432570531E+01               0
GRID*               1683               09.6111599577E+005.7608479379E+00+
*       3.5934244499E+00               0
GRID*               1684               01.1783944480E+017.3759062583E+00+
*       3.7361969186E+00               0
GRID*               1685               01.0151407732E+018.2276683427E+00+
*       3.6235084455E+00               0
GRID*               1686               02.4437298812E+001.2055686816E+01+
*       6.0149550790E+01               0
GRID*               1687               01.0418637973E+001.3667534928E+01+
*       6.1743431810E+01               0
GRID*               1688               03.8833844953E+001.3471986648E+01+
*       6.2258335818E+01               0
GRID*               1689               03.1912685735E+001.4034836224E+01+
*       6.0369981949E+01               0
GRID*               1690               03.2408475727E+001.1263898302E+01+
*       6.3362606201E+01               0
GRID*               1691               02.0386404989E+011.3388539540E+01+
*       2.3147203292E+01               0
GRID*               1692               02.0474767901E+011.0894019607E+01+
*       2.3226617506E+01               0
GRID*               1693               02.2313085795E+011.2190127563E+01+
*       2.4570593133E+01               0
GRID*               1694               0-1.188035493E+014.3831070337E+00+
*       2.5487209529E+01               0
GRID*               1695               0-7.936931094E+001.3414079166E+01+
*       1.1778809114E+01               0
GRID*               1696               02.3170933251E+001.0772272614E+01+
*       3.4464378766E+01               0
GRID*               1697               01.6036351264E+016.9582537092E+00+
*       1.5180572428E+01               0
GRID*               1698               01.5471876273E+014.8957476286E+00+
*       1.6393538419E+01               0
GRID*               1699               01.7367978180E+014.9035984626E+00+
*       1.2964190330E+01               0
GRID*               1700               01.7811935950E+019.9520922080E+00+
*       1.5384127976E+01               0
GRID*               1701               0-8.667988693E-011.3445243521E+01+
*       1.7021662526E+01               0
GRID*               1702               01.6059808126E+019.8061892736E+00+
*       1.5911067393E+01               0
GRID*               1703               01.7375888345E+011.0542393075E+01+
*       1.7184861046E+01               0
GRID*               1704               0-1.850408281E+017.5553713051E+00+
*       3.8074897990E+01               0
GRID*               1705               0-1.829363120E+015.1191515499E+00+
*       4.0654567051E+01               0
GRID*               1706               0-1.678653431E+013.9314088442E+00+
*       3.7957985864E+01               0
GRID*               1707               0-1.877235879E+015.6572046206E+00+
*       3.8139859104E+01               0
GRID*               1708               01.0848214094E+009.8682567274E+00+
*       6.1558055149E+01               0
GRID*               1709               06.5378209509E-011.0844459143E+01+
*       6.3621442377E+01               0
GRID*               1710               08.4506593174E-018.6028755138E+00+
*       6.3931043150E+01               0
GRID*               1711               0-1.641649523E+001.1711919357E+01+
*       5.2404447947E+01               0
GRID*               1712               0-8.947820717E-011.0814026531E+01+
*       5.4084585799E+01               0
GRID*               1713               01.2789127163E+011.1070378427E+01+
*       5.0003162630E+01               0
GRID*               1714               01.1218520547E+018.4431626250E+00+
*       4.5149104134E+01               0
GRID*               1715               01.6150651921E+011.0214193028E+01+
*       4.8571912546E+01               0
GRID*               1716               01.3452937008E+011.1071940046E+01+
*       4.8330611896E+01               0
GRID*               1717               01.1807867557E+016.3703749506E+00+
*       4.4699262221E+01               0
GRID*               1718               0-2.479963503E+013.3306274289E+00+
*       1.4539380459E+01               0
GRID*               1719               0-2.252483986E+011.4935396781E+00+
*       1.5494937568E+01               0
GRID*               1720               0-2.433435837E+013.1070311171E+00+
*       1.6646293243E+01               0
GRID*               1721               09.2847967715E-011.0572998974E+01+
*       3.1563092000E+01               0
GRID*               1722               03.5692441026E+001.0602722775E+01+
*       2.9079096196E+01               0
GRID*               1723               01.4733949503E+013.7184258878E+00+
*       2.8559456324E+01               0
GRID*               1724               01.6626650238E+013.4367062095E+00+
*       2.8663628698E+01               0
GRID*               1725               01.5190487902E+012.2551135134E+00+
*       2.6331918123E+01               0
GRID*               1726               01.4314761870E+011.1247541792E+00+
*       2.8668510975E+01               0
GRID*               1727               01.2264684846E+011.2919744990E+00+
*       2.8590819414E+01               0
GRID*               1728               01.3404251552E+011.6602766075E+00+
*       3.0765811471E+01               0
GRID*               1729               01.5626380657E+012.2364048390E+00+
*       3.0569448913E+01               0
GRID*               1730               04.3303480075E+001.0231925026E+01+
*       4.0770945351E+01               0
GRID*               1731               06.5274901282E+007.7467437570E+00+
*       4.3030347065E+01               0
GRID*               1732               01.0652069957E+001.0399678546E+01+
*       1.1382991690E+01               0
GRID*               1733               01.9115961213E+011.1159278483E+01+
*       5.7323407074E+00               0
GRID*               1734               01.2267611612E+001.2767735056E+01+
*       6.4076390815E+01               0
GRID*               1735               02.2465786511E+013.6546996923E+00+
*       1.2155466552E+01               0
GRID*               1736               02.3832546480E+014.1941738025E+00+
*       1.1048714967E+01               0
GRID*               1737               02.3657493281E+011.5064466036E+00+
*       1.1544320913E+01               0
GRID*               1738               02.2109401850E+013.1252414328E+00+
*       9.3249587549E+00               0
GRID*               1739               02.2869962103E+012.8273157748E+00+
*       1.4262782146E+01               0
GRID*               1740               02.1463909232E+011.6274618003E+00+
*       1.3925516936E+01               0
GRID*               1741               02.3305651702E+011.2839816944E+00+
*       1.3513234121E+01               0
GRID*               1742               02.0550985302E+013.6580444472E+00+
*       1.0912414506E+01               0
GRID*               1743               02.0361090560E+013.1412771685E+00+
*       1.3304149887E+01               0
GRID*               1744               0-1.451038815E+011.7268001179E+00+
*       2.6657242343E+01               0
GRID*               1745               0-1.166398120E+012.3004658914E+00+
*       2.8816458587E+01               0
GRID*               1746               0-1.329945482E+012.6497362908E+00+
*       2.8304265749E+01               0
GRID*               1747               0-1.285632303E+011.3706815228E+00+
*       2.6371409494E+01               0
GRID*               1748               0-1.563308876E+007.0945376317E+00+
*       4.0303543584E+01               0
GRID*               1749               0-5.386381645E-014.8048187968E+00+
*       4.0232650560E+01               0
GRID*               1750               07.2467473025E-011.0963485794E+01+
*       3.7319981160E+01               0
GRID*               1751               0-2.190066530E-011.0078021030E+01+
*       3.9576013333E+01               0
GRID*               1752               02.8329665774E+00-1.859704767E+01+
*       5.4613855270E+01               0
GRID*               1753               0-9.354728951E-011.0455158591E+01+
*       3.5747424315E+01               0
GRID*               1754               0-9.121075867E-019.9840147891E+00+
*       3.7715824938E+01               0
GRID*               1755               01.5334278716E+011.1263291691E+01+
*       2.1448975168E+01               0
GRID*               1756               04.5187691598E+005.7794314460E+00+
*       6.9197537682E+00               0
GRID*               1757               06.4016362389E+004.0330911945E+00+
*       5.7568914564E+00               0
GRID*               1758               05.4943753546E+003.0233814497E+00+
*       3.7620965674E+00               0
GRID*               1759               01.2875989003E+011.1585950443E+01+
*       5.2091312005E+00               0
GRID*               1760               04.4006033222E+002.3547652775E+00+
*       4.6940309677E+01               0
GRID*               1761               01.8990215990E+012.4287413558E+00+
*       1.2372550544E+01               0
GRID*               1762               01.7873983996E+013.9210533682E+00+
*       1.4757922785E+01               0
GRID*               1763               02.3094909196E+015.5510011953E+00+
*       1.2889580239E+01               0
GRID*               1764               0-1.456785714E+011.3233088888E+00+
*       3.6358112833E+01               0
GRID*               1765               0-6.329002378E+001.1276800835E+01+
*       4.5070122586E+01               0
GRID*               1766               0-2.770019308E+019.3654811586E+00+
*       1.9419960361E+00               0
GRID*               1767               0-2.441477605E+004.4952925490E+00+
*       1.6685148138E+01               0
GRID*               1768               0-1.067079846E+014.6957429468E+00+
*       2.3739103229E+01               0
GRID*               1769               0-2.465545295E+011.0266167624E+01+
*       2.1182047391E+00               0
GRID*               1770               0-2.544785315E+018.8228414248E+00+
*       1.4488364469E+00               0
GRID*               1771               0-1.886645263E+011.6643331735E+00+
*       3.8475459761E+01               0
GRID*               1772               04.1774057242E+008.8605940785E-01+
*       4.9302446114E+01               0
GRID*               1773               03.8843497469E+003.3039367195E+00+
*       5.2425309974E+01               0
GRID*               1774               0-1.601501412E+011.6810973432E+00+
*       3.4920395744E+01               0
GRID*               1775               0-1.229923058E+014.7994871357E+00+
*       4.7179404924E+01               0
GRID*               1776               0-5.463151644E+00-1.129471495E+01+
*       5.2076645259E+01               0
GRID*               1777               0-4.840441802E+00-1.288836687E+01+
*       5.4670771246E+01               0
GRID*               1778               0-2.633308167E+00-1.139332549E+01+
*       5.3462742710E+01               0
GRID*               1779               0-5.022910899E+00-1.018697775E+01+
*       5.4446181932E+01               0
GRID*               1780               0-2.676673070E+011.2207009812E+01+
*       1.4857077474E+00               0
GRID*               1781               0-5.529116124E+00-8.262142822E+00+
*       5.1765710381E+01               0
GRID*               1782               0-2.938411556E+00-9.709957804E+00+
*       5.1401219508E+01               0
GRID*               1783               0-2.700555650E+011.0403588082E+01+
*       4.7711453990E+00               0
GRID*               1784               0-3.002541779E+00-7.045168716E+00+
*       5.0250267128E+01               0
GRID*               1785               0-3.333066097E+00-7.438208877E+00+
*       5.3607425648E+01               0
GRID*               1786               0-5.433755023E+00-5.840134130E+00+
*       5.2477835385E+01               0
GRID*               1787               0-5.735951126E+00-1.837102058E+01+
*       5.2358232575E+01               0
GRID*               1788               0-4.126066763E+00-1.779835942E+01+
*       5.3900132944E+01               0
GRID*               1789               0-1.045720455E+014.3655797714E+00+
*       1.1253514546E+01               0
GRID*               1790               0-1.974389405E+016.9271805756E+00+
*       3.3937813733E+01               0
GRID*               1791               01.0400536300E+014.6574472392E+00+
*       7.4463860128E+00               0
GRID*               1792               0-1.647335303E+011.8371624734E+00+
*       3.8431145143E+01               0
GRID*               1793               06.4230048352E-017.9383895565E-02+
*       5.7602261056E+01               0
GRID*               1794               01.8781710969E+00-1.804635064E+00+
*       5.7228732717E+01               0
GRID*               1795               03.9239863979E+00-1.658321316E-01+
*       5.6022302477E+01               0
GRID*               1796               01.8206739519E+002.4549634914E+00+
*       5.8978249371E+01               0
GRID*               1797               03.2320719415E+002.0290662149E+00+
*       5.7499546311E+01               0
GRID*               1798               0-1.314403378E-021.8228443826E+00+
*       5.8597203320E+01               0
GRID*               1799               03.3495408277E+002.1985162735E+00+
*       5.5222302696E+01               0
GRID*               1800               02.1552078293E+018.0643254188E+00+
*       2.0166896660E+00               0
GRID*               1801               02.4929401349E+016.4312924458E+00+
*       3.6514933567E+00               0
GRID*               1802               02.0287157504E+011.0216046323E+01+
*       1.4873768449E+00               0
GRID*               1803               02.0587953018E+016.7106212818E+00+
*       1.4122135169E+00               0
GRID*               1804               01.9240895828E+018.0174906967E+00+
*       1.4785416002E+00               0
GRID*               1805               0-2.445752768E+011.0374570123E+01+
*       6.1129373329E+00               0
GRID*               1806               0-2.585162341E+015.2231491589E+00+
*       9.4981731900E+00               0
GRID*               1807               0-2.634981096E+011.0259788608E+01+
*       8.4636675141E+00               0
GRID*               1808               0-2.436822831E+011.1424459152E+01+
*       8.3300879115E+00               0
GRID*               1809               0-2.458754677E+011.3610835419E+01+
*       5.4801022312E+00               0
GRID*               1810               0-2.632121786E+016.7832967445E+00+
*       8.8592694968E+00               0
GRID*               1811               0-2.945475467E+002.3794759714E+00+
*       5.7556452750E+01               0
GRID*               1812               0-1.965313627E+008.3740173583E+00+
*       1.3337502784E+00               0
GRID*               1813               0-2.767690557E+011.2374889092E+01+
*       3.6755240953E+00               0
GRID*               1814               0-2.679198463E+011.1700464608E+01+
*       6.3076116701E+00               0
GRID*               1815               01.5625397897E+011.0257203271E+01+
*       1.8681794461E+01               0
GRID*               1816               06.3369159345E+001.2915344696E+01+
*       1.8666504102E+00               0
GRID*               1817               05.4434586881E+001.3231913129E+01+
*       3.3736729911E+00               0
GRID*               1818               0-2.799227527E+016.6327501559E+00+
*       2.0374671770E+00               0
GRID*               1819               0-1.870858253E+011.0318866527E+01+
*       3.0774967931E+01               0
GRID*               1820               0-2.012527374E+019.8275114244E+00+
*       3.2222982660E+01               0
GRID*               1821               0-1.974924612E+011.0093288803E+01+
*       3.4027824802E+01               0
GRID*               1822               0-2.370019753E+016.5377403261E+00+
*       1.3255706802E+01               0
GRID*               1823               0-2.262266216E+015.6167172766E+00+
*       1.3946858984E+01               0
GRID*               1824               01.8286090171E+011.1662328652E+01+
*       2.4536256070E+01               0
GRID*               1825               08.5024008811E-011.4182453386E+00+
*       1.9889694929E+01               0
GRID*               1826               01.9479068253E+011.1020233070E+01+
*       2.6282333878E+01               0
GRID*               1827               01.3278633940E+016.5147634605E+00+
*       1.2343250495E+00               0
GRID*               1828               01.0754721672E+017.0032434591E+00+
*       1.1346537929E+00               0
GRID*               1829               01.2267203290E+019.9677822204E+00+
*       1.8593927634E+00               0
GRID*               1830               01.3898521748E+017.9559059535E+00+
*       1.3137874612E+00               0
GRID*               1831               01.1473819317E+011.0825566793E+01+
*       3.1937454500E+00               0
GRID*               1832               01.2387044033E+014.0116279011E+00+
*       3.7988747170E+00               0
GRID*               1833               0-2.044518717E+013.4335897685E+00+
*       5.4417549934E+00               0
GRID*               1834               02.0446550708E+019.1411260402E+00+
*       1.7416318910E+01               0
GRID*               1835               01.7935314084E+011.2915306086E+01+
*       3.8911177872E+01               0
GRID*               1836               01.8361357117E+014.2615418314E+00+
*       1.8107750296E+01               0
GRID*               1837               01.9436376150E+011.7712126639E+00+
*       1.4405152137E+01               0
GRID*               1838               01.7362409972E+014.2736288493E+00+
*       1.6399503748E+01               0
GRID*               1839               06.7257541538E+003.5538976144E+00+
*       1.5973494306E+01               0
GRID*               1840               08.6196358737E+004.0346526711E+00+
*       1.5596821480E+01               0
GRID*               1841               02.1609624132E+011.1201115094E+01+
*       8.7134523821E+00               0
GRID*               1842               02.0672495922E+011.2631558275E+01+
*       7.8123741478E+00               0
GRID*               1843               02.1906043935E+011.3233653496E+01+
*       5.4817187191E+00               0
GRID*               1844               01.0142494164E+014.2726834519E+00+
*       4.3226336659E+01               0
GRID*               1845               01.2477530456E+013.8653865802E+00+
*       4.4262800599E+01               0
GRID*               1846               09.8726801063E+009.7223235791E+00+
*       4.4148717999E+01               0
GRID*               1847               05.4241126282E+00-3.229768687E+00+
*       4.9623052312E+01               0
GRID*               1848               05.8060271928E+00-6.646765517E+00+
*       5.1447700746E+01               0
GRID*               1849               0-1.312279436E+019.9154561087E+00+
*       5.2741187163E+01               0
GRID*               1850               0-1.061425118E+011.1623430319E+01+
*       5.0460761365E+01               0
GRID*               1851               0-1.187412070E+001.1307074779E+01+
*       6.0774232825E+01               0
GRID*               1852               0-2.502016508E+001.3489906873E+01+
*       5.9935154195E+01               0
GRID*               1853               0-4.112649154E+001.3165685870E+01+
*       6.2000931539E+01               0
GRID*               1854               0-1.260938757E+001.3572579442E+01+
*       6.2485922443E+01               0
GRID*               1855               06.0606712200E+004.9344650629E+00+
*       5.5382813533E+01               0
GRID*               1856               01.6104085092E+016.2646109231E+00+
*       4.8371248783E+01               0
GRID*               1857               01.5031823114E+011.0216524119E+01+
*       5.0476396143E+01               0
GRID*               1858               01.1007112222E+011.0909480200E+01+
*       5.2482935039E+01               0
GRID*               1859               01.4736458790E+019.4087057400E+00+
*       3.0252995730E+01               0
GRID*               1860               01.7436236250E+018.1813052214E+00+
*       3.0351677721E+01               0
GRID*               1861               01.7569576143E+016.1323529376E+00+
*       3.4064853928E+01               0
GRID*               1862               01.8408565214E+015.0804115310E+00+
*       3.0330357230E+01               0
GRID*               1863               01.7910529659E+014.0811788376E+00+
*       3.1772067875E+01               0
GRID*               1864               02.2856935965E+011.2203989746E+01+
*       1.0881114666E+01               0
GRID*               1865               02.5825066444E+011.2800723393E+01+
*       1.0719726110E+01               0
GRID*               1866               02.3668601548E+011.3760530074E+01+
*       1.1647570003E+01               0
GRID*               1867               02.3599784937E+011.0208979229E+01+
*       1.2217538836E+01               0
GRID*               1868               02.0604691334E+011.3059283801E+01+
*       9.6651833285E+00               0
GRID*               1869               0-2.269474605E+009.7817948007E+00+
*       6.3487280863E+01               0
GRID*               1870               01.8376259975E+011.0648779537E+01+
*       1.3645612825E+01               0
GRID*               1871               01.8962730627E+011.3291100245E+01+
*       1.3044917599E+01               0
GRID*               1872               0-1.326372756E+011.1619868028E+01+
*       2.3876144477E+01               0
GRID*               1873               0-1.422974106E+011.2566752402E+01+
*       2.2672085716E+01               0
GRID*               1874               0-1.918975760E+011.2960714538E+01+
*       2.4199522712E+01               0
GRID*               1875               09.5537392973E+004.5686391310E+00+
*       5.7138406437E+01               0
GRID*               1876               0-1.663839867E+011.3575636775E+01+
*       2.8024340144E+01               0
GRID*               1877               0-2.110285239E+011.1682532023E+01+
*       2.7183475015E+01               0
GRID*               1878               02.0078150637E+001.0403517192E+01+
*       4.3219818992E+01               0
GRID*               1879               0-1.305521745E+001.0407125805E+01+
*       4.2208103773E+01               0
GRID*               1880               01.5443597778E+014.3700902366E+00+
*       1.4246334420E+01               0
GRID*               1881               02.4676899458E+001.3123350282E+01+
*       4.7331010371E+01               0
GRID*               1882               01.7119717457E+011.3563498203E+01+
*       4.4263738731E+01               0
GRID*               1883               02.0170413403E+016.3020421654E+00+
*       1.9451798245E+01               0
GRID*               1884               01.0931368159E+019.0667258258E+00+
*       1.8349048640E+00               0
GRID*               1885               02.2501815549E+018.6882492457E+00+
*       1.4663146813E+01               0
GRID*               1886               0-1.372096957E+017.7398163326E+00+
*       5.4492880342E+01               0
GRID*               1887               0-1.042310888E+013.6112098406E+00+
*       3.8484862485E+01               0
GRID*               1888               0-9.362289977E+004.5382256105E+00+
*       4.0556945141E+01               0
GRID*               1889               02.5357696780E+014.8889308277E+00+
*       6.2059689519E+00               0
GRID*               1890               0-6.660340950E+001.2481636096E+01+
*       3.7815053107E+01               0
GRID*               1891               0-3.513679709E+001.3060339900E+01+
*       3.8397954975E+01               0
GRID*               1892               0-4.203315245E+001.3416161679E+01+
*       3.9909794809E+01               0
GRID*               1893               0-5.219775430E+001.3816209305E+01+
*       3.8071707065E+01               0
GRID*               1894               0-1.276419805E+011.3049251461E+01+
*       6.8892980251E+00               0
GRID*               1895               0-9.623561127E+001.3611228626E+01+
*       3.6619978995E+00               0
GRID*               1896               02.4023899877E+014.5820605379E+00+
*       8.6257902581E+00               0
GRID*               1897               02.5748732643E+017.1472522305E+00+
*       1.1451423281E+01               0
GRID*               1898               02.3873433998E+016.8100396387E+00+
*       1.1873670999E+01               0
GRID*               1899               02.5545827952E+016.8845968669E+00+
*       9.5101869021E+00               0
GRID*               1900               02.5623619180E+014.9319854288E+00+
*       1.0711586588E+01               0
GRID*               1901               0-1.031253816E+011.8571088833E+00+
*       4.1451168498E+01               0
GRID*               1902               0-1.953426681E+016.5680960996E+00+
*       2.8251592176E+01               0
GRID*               1903               0-1.794189350E+011.0915314602E+01+
*       2.7951848119E+01               0
GRID*               1904               0-2.013136508E+017.8760053773E+00+
*       2.6874298458E+01               0
GRID*               1905               0-1.952801933E+019.6560133247E+00+
*       2.8263119533E+01               0
GRID*               1906               0-9.799587641E-011.0001123896E+01+
*       5.8694340306E+01               0
GRID*               1907               0-4.852948592E+004.6515856472E+00+
*       5.8311422927E+01               0
GRID*               1908               0-1.214116747E+001.3300082440E+01+
*       5.8060428914E+01               0
GRID*               1909               0-1.605607928E+011.1876165033E+01+
*       2.9395572282E+01               0
GRID*               1910               01.0579573761E+004.2631144093E+00+
*       6.0753590048E+01               0
GRID*               1911               09.1374684299E+007.6392388905E+00+
*       5.9224278272E+01               0
GRID*               1912               06.4585396445E+001.0505266221E+01+
*       5.9937566571E+01               0
GRID*               1913               07.1379189006E+001.1017125139E+01+
*       5.7675010521E+01               0
GRID*               1914               01.6844904835E+011.8369167213E+00+
*       4.6131661980E+01               0
GRID*               1915               05.4725874767E+001.1744514315E+01+
*       5.8873960738E+01               0
GRID*               1916               01.1386902069E+014.3207477185E+00+
*       5.9647728299E+00               0
GRID*               1917               06.1381454517E+004.0221883585E+00+
*       2.3728108838E+01               0
GRID*               1918               07.1741393850E+001.1200067807E+01+
*       2.2977385207E+01               0
GRID*               1919               06.6733419426E+004.5586196782E+00+
*       2.1949290743E+01               0
GRID*               1920               0-4.386169399E+00-5.058121914E+00+
*       5.5409843282E+01               0
GRID*               1921               0-1.214995575E+011.7953830354E+00+
*       3.8997543442E+01               0
GRID*               1922               01.6911385670E+00-4.994849938E+00+
*       5.4353677355E+01               0
GRID*               1923               0-3.669237287E+00-3.088256112E+00+
*       5.6357902062E+01               0
GRID*               1924               02.0824210291E+011.3485141527E+01+
*       2.5198283773E+01               0
GRID*               1925               0-2.883802539E+00-4.721226721E+00+
*       5.0251218483E+01               0
GRID*               1926               0-5.277031936E+00-6.272166716E+00+
*       4.9256288234E+01               0
GRID*               1927               0-3.748450022E-01-7.372970088E+00+
*       5.0850105357E+01               0
GRID*               1928               0-1.186797316E+00-4.980914521E+00+
*       4.8072667071E+01               0
GRID*               1929               09.7747642942E-01-3.849494959E+00+
*       4.9764506053E+01               0
GRID*               1930               0-3.314184936E+00-2.317037492E+00+
*       4.8346895700E+01               0
GRID*               1931               0-3.963623823E+00-4.544972285E+00+
*       4.7614920358E+01               0
GRID*               1932               05.9340430778E+007.8908337163E+00+
*       1.1087696541E+01               0
GRID*               1933               09.7712801155E+007.6247478949E+00+
*       1.2715823179E+01               0
GRID*               1934               01.8417815560E+012.1114218864E+00+
*       4.0221569545E+01               0
GRID*               1935               07.0976122149E+001.3034622869E+01+
*       5.0849005219E+01               0
GRID*               1936               09.6836389620E+002.7140658795E+00+
*       3.6173507819E+01               0
GRID*               1937               09.0668847863E+001.3631646770E+01+
*       5.1774120091E+01               0
GRID*               1938               08.4255547299E+001.2610212398E+01+
*       5.3692041510E+01               0
GRID*               1939               05.1576567682E+001.3347953548E+01+
*       5.3910036550E+01               0
GRID*               1940               03.7589164790E+00-1.157047209E+00+
*       5.0216386123E+01               0
GRID*               1941               0-2.235662835E+00-3.165713402E-01+
*       5.0027882537E+01               0
GRID*               1942               03.6866912345E+004.7448597465E+00+
*       4.8035512865E+01               0
GRID*               1943               0-4.024884887E-014.6735361032E+00+
*       2.7039850273E+01               0
GRID*               1944               02.6922407061E+003.6835589018E+00+
*       2.6742070589E+01               0
GRID*               1945               01.3474806354E+013.6311422434E+00+
*       5.0245460222E+01               0
GRID*               1946               01.4636797481E+011.3636017174E+00+
*       4.8726663078E+01               0
GRID*               1947               01.5438320249E+013.6013859041E+00+
*       4.8520658478E+01               0
GRID*               1948               08.6682397553E+001.9761031573E+00+
*       3.7755068693E+01               0
GRID*               1949               05.4379703587E+004.8127640170E+00+
*       4.5914729153E+01               0
GRID*               1950               03.1637584539E+001.2811542284E+00+
*       2.6589636765E+01               0
GRID*               1951               08.5531250265E-011.9491651831E+00+
*       2.6769693398E+01               0
GRID*               1952               01.5936117704E+001.5389704563E+00+
*       2.5039822631E+01               0
GRID*               1953               01.4268836670E+011.0797549187E+01+
*       3.6300087679E+01               0
GRID*               1954               0-5.296770480E+001.0714513680E+01+
*       2.4378139503E+01               0
GRID*               1955               0-4.477874546E+001.0910080738E+01+
*       2.6360838734E+01               0
GRID*               1956               0-6.771649868E+004.5863178166E+00+
*       2.1739138162E+01               0
GRID*               1957               0-2.872550473E+004.1795479898E+00+
*       2.4540361056E+01               0
GRID*               1958               02.0905133333E+011.0557614184E+01+
*       2.9329552151E+01               0
GRID*               1959               01.8454859059E+011.2273513789E+01+
*       2.8668002002E+01               0
GRID*               1960               02.1013042076E+011.2280883592E+01+
*       2.8007869817E+01               0
GRID*               1961               01.9754845075E+011.3606385270E+01+
*       1.9365417181E+01               0
GRID*               1962               01.9037446089E+011.1385788792E+01+
*       1.6855574821E+01               0
GRID*               1963               02.0441015117E+011.1282059432E+01+
*       1.9406402683E+01               0
GRID*               1964               08.0945222719E+002.6494861129E+00+
*       3.1472205660E+01               0
GRID*               1965               07.9807722846E+001.7372019396E+00+
*       2.9346195054E+01               0
GRID*               1966               01.8498631821E+011.2750895246E+01+
*       1.8434258659E+01               0
GRID*               1967               02.3467552934E+011.3551623815E+01+
*       1.7205253207E+01               0
GRID*               1968               05.0503991079E+005.3108449861E+00+
*       2.5770525890E+01               0
GRID*               1969               05.1971756919E-011.5503568496E+00+
*       2.1801880793E+00               0
GRID*               1970               02.8231775465E+003.4814512434E+00+
*       1.3111751098E+00               0
GRID*               1971               02.3668017631E+001.1030779256E+01+
*       2.6033185100E+01               0
GRID*               1972               03.6883466368E-011.0701380066E+01+
*       2.5909758111E+01               0
GRID*               1973               01.5774026308E+011.3045784165E+01+
*       5.0317331527E+01               0
GRID*               1974               06.0994718190E+001.0493357010E+01+
*       3.5719246192E+01               0
GRID*               1975               02.2390768950E+011.2985806903E+01+
*       1.9361206727E+01               0
GRID*               1976               02.3447169769E+003.4265986653E+00+
*       2.2711918178E+01               0
GRID*               1977               06.4283741985E-012.1223285742E+00+
*       2.3292078896E+01               0
GRID*               1978               03.6951581826E+002.1277007253E+00+
*       2.1127232987E+01               0
GRID*               1979               05.0317970144E+002.1574091744E+00+
*       2.2647432420E+01               0
GRID*               1980               01.8566904299E+001.2753687583E+00+
*       2.1594388573E+01               0
GRID*               1981               07.7006717439E+007.4245667173E+00+
*       4.6152592292E+01               0
GRID*               1982               06.2513449171E+001.0531208966E+01+
*       4.6048637641E+01               0
GRID*               1983               04.6412037261E-011.1292326424E+01+
*       9.6851314584E+00               0
GRID*               1984               0-6.007537041E+001.0416710135E+01+
*       2.2202734876E+01               0
GRID*               1985               0-7.235662150E+001.2538871350E+01+
*       2.3828053092E+01               0
GRID*               1986               0-7.978354478E+001.2879745160E+01+
*       2.2251661788E+01               0
GRID*               1987               0-1.220389406E+015.2404266589E+00+
*       2.0275592600E+01               0
GRID*               1988               0-1.009637913E+014.2434897402E+00+
*       2.0836843751E+01               0
GRID*               1989               0-1.039696366E+011.0005199257E+01+
*       2.0262900041E+01               0
GRID*               1990               02.4701638359E+015.1760296165E+00+
*       7.7228207568E+00               0
GRID*               1991               0-1.675741937E+012.6131490840E+00+
*       4.6148726563E+01               0
GRID*               1992               0-1.709796969E+015.2562618799E+00+
*       4.4482254596E+01               0
GRID*               1993               0-1.708338623E+013.1007464874E+00+
*       4.3338927221E+01               0
GRID*               1994               0-1.113953846E+011.5970282687E+00+
*       5.1337323416E+01               0
GRID*               1995               0-9.467457173E+002.0587596066E+00+
*       5.0542456219E+01               0
GRID*               1996               06.7355492362E+001.0381572823E+01+
*       4.4300746678E+01               0
GRID*               1997               08.7069808099E+001.0188438870E+01+
*       4.2603695241E+01               0
GRID*               1998               07.4226054966E+004.4140914305E+00+
*       4.3750467091E+01               0
GRID*               1999               0-1.426679986E+011.4174107939E+00+
*       4.2655189183E+01               0
GRID*               2000               0-1.144493428E+012.6145233722E+00+
*       4.3422879476E+01               0
GRID*               2001               03.9922495691E+001.0521696591E+01+
*       4.3140152207E+01               0
GRID*               2002               05.6432967997E+001.0995284696E+01+
*       4.2235246768E+01               0
GRID*               2003               04.5756875249E+001.3096111615E+01+
*       4.3055472533E+01               0
GRID*               2004               0-1.803480201E+013.5783207603E+00+
*       4.1541680095E+01               0
GRID*               2005               0-1.748547856E+015.2365462362E+00+
*       4.2248471961E+01               0
GRID*               2006               04.7207813732E+001.3004437733E+01+
*       4.0637984944E+01               0
GRID*               2007               03.4050108945E+001.2549947043E+01+
*       3.8963006966E+01               0
GRID*               2008               0-2.658874452E+004.3194904528E+00+
*       4.4754141848E+01               0
GRID*               2009               03.8611438738E+004.8040042070E+00+
*       1.4426320555E+01               0
GRID*               2010               0-7.894109331E+004.3830989425E+00+
*       3.4393808799E+01               0
GRID*               2011               0-1.029875656E+014.2449534466E+00+
*       3.3548167606E+01               0
GRID*               2012               09.1228594067E+002.3675903883E+00+
*       1.6059328224E+01               0
GRID*               2013               01.2791640967E+012.0430125710E+00+
*       1.4140088024E+01               0
GRID*               2014               01.2518415285E+011.8330348588E+00+
*       1.6692591694E+01               0
GRID*               2015               01.0839756208E+011.2262010144E+00+
*       1.6061625153E+01               0
GRID*               2016               01.0097703834E+011.2479265860E+00+
*       1.4251907473E+01               0
GRID*               2017               01.1864068350E+011.0603211056E+01+
*       1.1214613029E+01               0
GRID*               2018               04.6177877402E+007.1721239745E-01+
*       5.3287628565E+01               0
GRID*               2019               0-1.597247804E+011.3766583916E+01+
*       4.2222213315E+01               0
GRID*               2020               01.7267515660E+014.4815252545E+00+
*       2.0248379210E+01               0
GRID*               2021               02.3374994461E+011.0230233859E+01+
*       1.9335079250E+01               0
GRID*               2022               01.8426847731E+019.7313005918E+00+
*       1.8470633716E+01               0
GRID*               2023               0-1.415013726E+011.1564100355E+01+
*       2.7625337114E+01               0
GRID*               2024               0-5.062035766E+003.0788255585E+00+
*       5.0687041593E+01               0
GRID*               2025               0-7.522802149E+002.3306498329E+00+
*       5.1096121750E+01               0
GRID*               2026               0-6.832665984E+002.5162859804E+00+
*       5.3178410815E+01               0
GRID*               2027               0-1.565787011E+017.3225684354E+00+
*       5.0126656458E+01               0
GRID*               2028               0-1.637180214E+016.8987438338E+00+
*       4.7577716222E+01               0
GRID*               2029               0-1.622602385E+015.3588417468E+00+
*       4.8876149354E+01               0
GRID*               2030               0-1.509577313E-011.0006739271E+01+
*       5.6980918742E+01               0
GRID*               2031               0-5.272579429E+001.1568735232E+01+
*       5.8760626065E+01               0
GRID*               2032               02.2589093148E+011.3734768994E+01+
*       1.3382893248E+01               0
GRID*               2033               0-1.458218072E+013.8025572050E+00+
*       4.3902546935E+01               0
GRID*               2034               0-1.303296635E+013.6681019125E+00+
*       4.5366356171E+01               0
GRID*               2035               0-1.758017626E+018.9684163608E+00+
*       4.4398142170E+01               0
GRID*               2036               0-1.737680670E+017.2613997247E+00+
*       4.3543584083E+01               0
GRID*               2037               0-1.713049171E+016.7769603824E+00+
*       4.5641588357E+01               0
GRID*               2038               02.1386917214E+011.3480685977E+01+
*       2.1093592561E+01               0
GRID*               2039               01.8458445837E+011.3474521432E+01+
*       2.1533315164E+01               0
GRID*               2040               0-1.842441762E+011.2120959696E+01+
*       3.9712589071E+01               0
GRID*               2041               02.4186134498E+003.2896122640E+00+
*       6.3813204576E+01               0
GRID*               2042               01.5821736646E+00-6.392221670E+00+
*       4.8609281886E+01               0
GRID*               2043               0-3.451155967E+00-6.840640313E+00+
*       4.7865969705E+01               0
GRID*               2044               0-1.695183013E+00-3.408909177E+00+
*       4.6183926032E+01               0
GRID*               2045               0-3.943284783E+00-1.548329736E+01+
*       5.5597949465E+01               0
GRID*               2046               0-3.185988148E+001.0673588808E+01+
*       4.1433896202E+01               0
GRID*               2047               01.1540601970E+011.1314663445E+01+
*       5.5032450032E+01               0
GRID*               2048               01.3195347501E+011.1366346849E+01+
*       5.2695584293E+01               0
GRID*               2049               01.4880072872E+019.3753032639E+00+
*       5.4044948704E+01               0
GRID*               2050               01.0495693603E+018.0625457993E+00+
*       5.7348953658E+01               0
GRID*               2051               01.1080489331E+011.0407961961E+01+
*       5.6720028772E+01               0
GRID*               2052               0-1.461647043E+011.0887734104E+01+
*       3.6893688419E+01               0
GRID*               2053               0-1.213431443E+013.8409262932E+00+
*       3.4834228861E+01               0
GRID*               2054               0-7.408213045E-021.3205662532E+01+
*       5.1173845830E+01               0
GRID*               2055               0-2.551991644E-011.3433213675E+01+
*       5.2771348270E+01               0
GRID*               2056               0-2.843373652E+001.3040028945E+01+
*       5.1489933005E+01               0
GRID*               2057               0-1.724295330E+001.3752648851E+01+
*       5.4026563564E+01               0
GRID*               2058               0-2.713866425E+001.2027985382E+01+
*       5.5341979536E+01               0
GRID*               2059               0-1.201639048E+013.3111351647E+00+
*       9.1304323884E+00               0
GRID*               2060               0-1.227702267E+011.9042537118E+00+
*       1.1381225340E+01               0
GRID*               2061               0-1.377596080E+012.0276306786E+00+
*       7.1323338252E+00               0
GRID*               2062               0-1.067269599E+011.4634933252E+00+
*       9.3995054412E+00               0
GRID*               2063               0-1.383474848E+012.2884319534E+00+
*       9.5687237927E+00               0
GRID*               2064               0-1.003155444E+012.0340308639E+00+
*       1.1134897738E+01               0
GRID*               2065               0-1.164464026E+012.0091626211E+00+
*       7.8785415552E+00               0
GRID*               2066               01.6193500442E+011.3634956673E+01+
*       1.3722203372E+01               0
GRID*               2067               01.6524670860E+011.2124418265E+01+
*       1.5099974828E+01               0
GRID*               2068               0-1.829509815E+013.7292089058E+00+
*       3.5684353808E+01               0
GRID*               2069               0-1.996005416E+012.2026248264E+00+
*       3.4356355871E+01               0
GRID*               2070               0-1.980284587E+015.0396512950E+00+
*       3.3186901593E+01               0
GRID*               2071               0-1.466188812E+011.2113469214E+01+
*       5.3934267592E+01               0
GRID*               2072               0-1.421695675E+011.0447895010E+01+
*       5.4663753025E+01               0
GRID*               2073               0-1.937686944E+011.9782795906E+00+
*       3.6381167927E+01               0
GRID*               2074               0-1.781974018E+011.2048259732E+00+
*       3.4656594696E+01               0
GRID*               2075               0-1.698839379E+011.5037556542E+00+
*       3.6397092042E+01               0
GRID*               2076               02.1454392718E+018.0660768039E+00+
*       2.8278889822E+01               0
GRID*               2077               02.1718602015E+016.5901846836E+00+
*       2.7374863354E+01               0
GRID*               2078               01.9295884822E+014.1907419830E+00+
*       2.8418929740E+01               0
GRID*               2079               02.0844304703E+004.5986966958E+00+
*       4.9885222648E+00               0
GRID*               2080               02.8562282100E-013.8448343088E+00+
*       3.6768198545E+00               0
GRID*               2081               0-2.256714519E+011.3571983554E+01+
*       1.4083365890E+01               0
GRID*               2082               0-1.511724118E+011.3531435157E+01+
*       4.4311764254E+01               0
GRID*               2083               0-2.016923907E+012.2337433045E+00+
*       7.0467672285E+00               0
GRID*               2084               0-2.217809324E+014.1581066128E+00+
*       7.1749194096E+00               0
GRID*               2085               0-8.230928133E+003.5026047592E+00+
*       5.8972840261E+01               0
GRID*               2086               0-1.034929385E+013.7204787293E+00+
*       5.6670039437E+01               0
GRID*               2087               0-9.352033225E+005.8867953585E+00+
*       6.0663882050E+01               0
GRID*               2088               0-1.119755853E+016.3119224677E+00+
*       5.8907979647E+01               0
GRID*               2089               0-1.115419113E+013.9513466622E+00+
*       5.9155123141E+01               0
GRID*               2090               01.3403079500E+019.6316164786E+00+
*       3.2641996537E+01               0
GRID*               2091               0-1.727281197E+00-9.700689867E+00+
*       4.9849271803E+01               0
GRID*               2092               06.5888223866E-01-1.160021037E+01+
*       4.8961124374E+01               0
GRID*               2093               01.2771302671E+00-1.047725051E+01+
*       5.1071196634E+01               0
GRID*               2094               0-1.417205334E+011.0647048412E+01+
*       5.0141035251E+01               0
GRID*               2095               0-1.170344615E+011.3422749679E+01+
*       5.1697048638E+01               0
GRID*               2096               0-9.519786169E-01-9.005517748E+00+
*       5.3209652100E+01               0
GRID*               2097               01.8954828445E+00-1.260855278E+01+
*       4.9962126155E+01               0
GRID*               2098               02.4400176746E+00-8.347860493E+00+
*       5.3577853739E+01               0
GRID*               2099               04.4835634141E-01-1.101687809E+01+
*       5.4211274682E+01               0
GRID*               2100               02.1525437117E+00-7.275300226E+00+
*       5.2063838456E+01               0
GRID*               2101               02.4304770833E+012.7354831715E+00+
*       6.9784569870E+00               0
GRID*               2102               02.5661544408E+013.1592390650E+00+
*       8.0937086075E+00               0
GRID*               2103               0-1.635761193E+011.1460633622E+01+
*       4.8237193221E+01               0
GRID*               2104               0-1.615309190E+018.8730801843E+00+
*       4.7970544530E+01               0
GRID*               2105               0-1.592228378E+019.3017384674E+00+
*       5.0621496303E+01               0
GRID*               2106               02.4335784656E+012.2382035277E+00+
*       9.4287294857E+00               0
GRID*               2107               02.2607880414E+011.2055141712E+00+
*       8.9659518091E+00               0
GRID*               2108               0-1.531497986E+015.1957874444E+00+
*       5.1688213343E+01               0
GRID*               2109               01.2159295480E+011.8303650126E+00+
*       5.3391968149E+01               0
GRID*               2110               01.0507845300E+011.3403143382E+01+
*       4.9955023573E+01               0
GRID*               2111               01.1469856743E+011.3475742424E+01+
*       5.2276735742E+01               0
GRID*               2112               01.3418900248E+011.3483036149E+01+
*       4.9865261378E+01               0
GRID*               2113               0-1.945817162E+002.4343356701E+00+
*       4.5268155544E+01               0
GRID*               2114               01.5478946914E+018.3856573831E+00+
*       5.2092005435E+01               0
GRID*               2115               0-7.232244916E-016.1551267108E+00+
*       6.3825006033E+01               0
GRID*               2116               01.6316287091E+011.1933041194E+01+
*       4.8065181296E+01               0
GRID*               2117               01.2490312121E+011.6695130037E+00+
*       4.9059944156E+01               0
GRID*               2118               01.5448861421E+011.3518229588E+01+
*       1.1980484650E+01               0
GRID*               2119               01.4261560540E+011.3735753146E+01+
*       1.5570739310E+01               0
GRID*               2120               01.2468203900E+011.3348748334E+01+
*       1.5157971878E+01               0
GRID*               2121               01.1831320866E+013.3699061627E+00+
*       8.0618320972E+00               0
GRID*               2122               09.5590673092E+001.9030093108E+00+
*       6.9957562940E+00               0
GRID*               2123               01.3976084005E+013.9089418012E+00+
*       6.1824052808E+00               0
GRID*               2124               01.3182847344E+011.7797465338E+00+
*       7.3696379633E+00               0
GRID*               2125               02.6941395773E+001.1302682992E+01+
*       2.1359983109E+01               0
GRID*               2126               0-8.805271604E+002.7582416961E+00+
*       5.4418864477E+01               0
GRID*               2127               0-1.139107804E+011.3322907863E+01+
*       1.2638649388E+01               0
GRID*               2128               0-1.774301728E+011.6471296363E+00+
*       1.2940872736E+01               0
GRID*               2129               0-1.939973563E+012.1224113373E+00+
*       1.1446587446E+01               0
GRID*               2130               0-1.851760762E+011.4670254107E+00+
*       1.5146533891E+01               0
GRID*               2131               01.8363999518E+018.6116265545E+00+
*       4.0200709234E+01               0
GRID*               2132               01.6045145134E+015.0770048586E+00+
*       3.9983483532E+01               0
GRID*               2133               05.5122141317E+001.4692005780E+00+
*       5.8606789362E+01               0
GRID*               2134               0-1.903523023E+017.2593216185E+00+
*       2.9747954295E+01               0
GRID*               2135               0-5.315160664E+00-8.892507947E+00+
*       4.9428392749E+01               0
GRID*               2136               0-2.165207413E+009.6710241836E+00+
*       3.9948489442E+01               0
GRID*               2137               0-7.798645592E+001.1095835892E+01+
*       6.1974684011E+01               0
GRID*               2138               02.6557115855E+001.0231533600E+01+
*       3.7095598345E+01               0
GRID*               2139               05.3583700484E+00-7.660384484E+00+
*       5.4208292391E+01               0
GRID*               2140               05.1372249683E+00-3.222047227E+00+
*       5.3616642362E+01               0
GRID*               2141               0-8.893174058E-01-5.355402657E+00+
*       5.2841482007E+01               0
GRID*               2142               0-4.128225798E+00-1.067416379E+01+
*       4.7917529792E+01               0
GRID*               2143               0-4.785802639E+001.3887601777E+00+
*       3.1740074707E+01               0
GRID*               2144               0-2.270553961E+016.3502600754E+00+
*       1.6389530650E+01               0
GRID*               2145               0-2.310559220E+011.0501877206E+01+
*       1.5427832749E+01               0
GRID*               2146               0-2.302074696E+018.5218062951E+00+
*       1.3883398254E+01               0
GRID*               2147               0-2.461190438E+018.0947219741E+00+
*       1.6180193778E+01               0
GRID*               2148               0-8.178521429E+001.3067774437E+01+
*       6.1519760191E+01               0
GRID*               2149               0-6.506129284E+001.3296069908E+01+
*       6.1785002651E+01               0
GRID*               2150               05.1849374564E+001.6821327934E+00+
*       3.0989631096E+01               0
GRID*               2151               03.5865857582E+002.0261725313E+00+
*       3.2256683421E+01               0
GRID*               2152               01.7649291934E+014.4885974505E+00+
*       3.6446663445E+01               0
GRID*               2153               01.5231685867E+013.2322426322E+00+
*       3.6775003142E+01               0
GRID*               2154               0-6.389467477E+008.9783104093E+00+
*       6.2716123639E+01               0
GRID*               2155               05.1057220163E+001.0971319991E+01+
*       6.2205898057E+01               0
GRID*               2156               0-1.027795762E+011.3160951879E+00+
*       5.5616577112E+01               0
GRID*               2157               0-1.054729458E+011.6621996564E+00+
*       5.3728760690E+01               0
GRID*               2158               0-7.474544322E+001.3224161045E+01+
*       4.3126623213E+01               0
GRID*               2159               0-7.407050764E+001.3585939992E+01+
*       4.5442122859E+01               0
GRID*               2160               0-4.588830349E+001.3413736534E+01+
*       4.4621791356E+01               0
GRID*               2161               0-5.807081284E+001.3367655207E+01+
*       4.8143374737E+01               0
GRID*               2162               0-1.238090984E+011.5871622507E+00+
*       5.5226323987E+01               0
GRID*               2163               0-1.284990583E+011.0188285880E+01+
*       2.0696246098E+01               0
GRID*               2164               0-7.781173413E+001.5464834350E+00+
*       5.6518029637E+01               0
GRID*               2165               0-1.037458161E+011.3198863362E+01+
*       5.7462317692E+01               0
GRID*               2166               03.2116046352E+001.0237028297E+01+
*       1.7281150494E+01               0
GRID*               2167               0-6.387649938E+001.1991191606E+01+
*       1.1485016332E+01               0
GRID*               2168               0-8.698636813E+001.3399546367E+01+
*       5.6565011673E+01               0
GRID*               2169               02.5893914906E+001.2394868161E+01+
*       8.5710609366E+00               0
GRID*               2170               02.0449414613E+001.3498920895E+01+
*       1.1060772241E+01               0
GRID*               2171               0-1.698628932E+001.2900622202E+01+
*       1.1503989612E+01               0
GRID*               2172               0-1.274988652E-011.3611687990E+01+
*       1.1561339436E+01               0
GRID*               2173               0-1.180258659E+001.3401292263E+01+
*       9.2558264001E+00               0
GRID*               2174               0-4.994484027E+001.1529401900E+01+
*       1.2098013933E+01               0
GRID*               2175               0-4.272651362E+001.3108598218E+01+
*       1.1068945289E+01               0
GRID*               2176               0-4.206747547E+001.3045557783E+01+
*       1.2555614447E+01               0
GRID*               2177               0-6.311021420E+001.3669407064E+01+
*       5.7378289451E+01               0
GRID*               2178               07.5852123341E+004.3559982776E+00+
*       2.0400876640E+01               0
GRID*               2179               05.1878005217E+003.7793909654E+00+
*       2.0215524072E+01               0
GRID*               2180               04.9161621357E+001.0989348245E+01+
*       2.1223475902E+01               0
GRID*               2181               08.4553059899E+001.1322975933E+01+
*       2.1084175386E+01               0
GRID*               2182               0-2.794396466E+001.6060301251E+00+
*       6.0440634666E+01               0
GRID*               2183               01.9225161944E+011.3242261424E+01+
*       1.0971939771E+01               0
GRID*               2184               0-7.810884007E+002.0651025358E+00+
*       3.5716507804E+01               0
GRID*               2185               0-5.917913880E+002.1505857507E+00+
*       3.5206941781E+01               0
GRID*               2186               03.4750147534E+008.4184502594E+00+
*       1.3409726178E+00               0
GRID*               2187               07.6814894625E+006.6677651727E+00+
*       1.2513463327E+01               0
GRID*               2188               07.0073116818E+001.3349607091E+01+
*       2.3079461827E+01               0
GRID*               2189               01.1583501703E+011.3678660183E+01+
*       1.9222842094E+01               0
GRID*               2190               01.4654720393E+011.3339663573E+01+
*       1.7762933878E+01               0
GRID*               2191               0-1.057563921E+014.0222111045E+00+
*       4.4628160603E+01               0
GRID*               2192               0-1.639926906E+012.7147181525E+00+
*       4.7939150513E+01               0
GRID*               2193               0-4.206792132E+004.3207481932E+00+
*       5.6786122184E+01               0
GRID*               2194               0-1.920319067E+011.8405188050E+00+
*       3.2276652981E+01               0
GRID*               2195               0-2.738306890E+00-1.460026090E+01+
*       5.7054423575E+01               0
GRID*               2196               0-2.640253472E+00-6.620380678E+00+
*       5.6944533218E+01               0
GRID*               2197               05.6820110505E-01-7.358470240E+00+
*       5.6327683573E+01               0
GRID*               2198               0-1.092455578E+011.6527795270E+00+
*       3.3794713028E+01               0
GRID*               2199               0-3.231609758E+00-8.230079155E+00+
*       5.5792683441E+01               0
GRID*               2200               04.1710790557E+004.0954320494E+00+
*       5.6037006549E+00               0
GRID*               2201               07.1442507902E+001.3509216117E+01+
*       4.0724558196E+01               0
GRID*               2202               06.3115283458E+001.3176637073E+01+
*       4.3771964049E+01               0
GRID*               2203               0-2.686835449E+001.0841245144E+01+
*       3.7721159767E+01               0
GRID*               2204               09.7544957167E+001.3551961830E+01+
*       5.4316910814E+01               0
GRID*               2205               0-1.184116190E+001.2931822223E+01+
*       6.4215269462E+01               0
GRID*               2206               0-3.925433474E+001.2206883946E+01+
*       6.3537119269E+01               0
GRID*               2207               0-1.363321162E+001.1245936202E+01+
*       5.6874073889E+01               0
GRID*               2208               0-3.088364211E+001.2637168163E+01+
*       5.7577974078E+01               0
GRID*               2209               09.2071541018E-011.3207949042E+01+
*       5.8687759618E+01               0
GRID*               2210               04.8652715995E+001.3132371345E+01+
*       3.7048636604E+01               0
GRID*               2211               0-9.971077767E+001.1228819895E+01+
*       5.3646160408E+01               0
GRID*               2212               0-2.369844163E+011.3234822722E+01+
*       1.6303234453E+00               0
GRID*               2213               0-9.620854967E+004.0106026701E+00+
*       4.6803027776E+01               0
GRID*               2214               0-1.625519929E+011.9121697920E+00+
*       3.1282409768E+01               0
GRID*               2215               02.6291417024E+016.8657076090E+00+
*       7.5523045068E+00               0
GRID*               2216               0-8.923307077E+001.1047677687E+01+
*       2.1535561243E+01               0
GRID*               2217               0-1.481149680E+011.7779590949E+00+
*       2.1642920189E+01               0
GRID*               2218               01.5552783246E+011.3079218274E+01+
*       8.1550033201E+00               0
GRID*               2219               01.7569357441E+011.3249075284E+01+
*       9.2275029197E+00               0
GRID*               2220               01.6849705505E+011.1030735024E+01+
*       7.3799519557E+00               0
GRID*               2221               01.4841434776E+011.3548482880E+01+
*       9.8252682207E+00               0
GRID*               2222               01.7116414072E+011.1673923252E+01+
*       5.0390819772E+00               0
GRID*               2223               01.6941208518E+011.3129230292E+01+
*       6.4109115441E+00               0
GRID*               2224               01.8981206392E+011.2828628309E+01+
*       7.7089048243E+00               0
GRID*               2225               0-1.556356121E+013.6780248628E+00+
*       1.4906442826E+01               0
GRID*               2226               0-1.372221644E+015.6919146169E+00+
*       5.5598791699E+01               0
GRID*               2227               01.9926491220E+011.3801059383E+01+
*       2.8895611612E+01               0
GRID*               2228               01.4809756041E+011.3110684168E+01+
*       2.8794963663E+01               0
GRID*               2229               05.4981950358E+00-1.217131007E+01+
*       4.9718283210E+01               0
GRID*               2230               0-7.261456963E+005.6189904116E+00+
*       6.1888229294E+01               0
GRID*               2231               0-6.546525982E+004.3494423777E+00+
*       6.0329331020E+01               0
GRID*               2232               09.0362835742E-01-3.821773435E+00+
*       5.7577557100E+01               0
GRID*               2233               01.0534503928E+011.3233752587E+01+
*       5.6518162725E+01               0
GRID*               2234               08.7415307175E+001.3190533621E+01+
*       5.6717440622E+01               0
GRID*               2235               01.0783268612E+011.0686690015E+00+
*       5.2328614597E+01               0
GRID*               2236               02.2133022650E+011.1661967634E+01+
*       3.3349449078E+00               0
GRID*               2237               0-4.575508059E+001.8261316150E+00+
*       4.7252190865E+01               0
GRID*               2238               0-3.616123178E+00-3.706418519E-01+
*       4.7716977283E+01               0
GRID*               2239               09.4323287523E+001.3320187640E+01+
*       4.0513215844E+01               0
GRID*               2240               09.4703023662E+001.3700188371E+01+
*       3.8991915416E+01               0
GRID*               2241               01.0489594636E+011.3929381132E+01+
*       3.7917046197E+01               0
GRID*               2242               01.2309938579E+011.3441664983E+01+
*       3.8957447750E+01               0
GRID*               2243               03.0530515890E+00-7.626794861E+00+
*       5.6705664674E+01               0
GRID*               2244               08.9681909991E+004.3235577118E+00+
*       1.2239502926E+01               0
GRID*               2245               02.0910330261E+018.2319709577E+00+
*       3.0127644609E+01               0
GRID*               2246               02.1029607343E+016.1281466121E+00+
*       2.9343808445E+01               0
GRID*               2247               02.0588831933E+016.4036705162E+00+
*       3.1192801758E+01               0
GRID*               2248               02.0420080627E+018.4649456261E+00+
*       3.1936208190E+01               0
GRID*               2249               01.8187601290E+018.7230501175E+00+
*       3.2578894010E+01               0
GRID*               2250               01.8949305782E+016.7833282110E+00+
*       3.1737060411E+01               0
GRID*               2251               0-9.546142514E+003.5583498149E+00+
*       5.0087828767E+00               0
GRID*               2252               0-1.154363303E+013.6835462224E+00+
*       5.7934566526E+00               0
GRID*               2253               01.1078238882E+00-1.406853833E+01+
*       5.0090965522E+01               0
GRID*               2254               01.6979994502E+00-1.584633130E+01+
*       4.9004722904E+01               0
GRID*               2255               01.7123343851E+00-1.626205631E+01+
*       5.2069000790E+01               0
GRID*               2256               08.7585622424E-011.2769738117E+01+
*       4.4783689737E+01               0
GRID*               2257               0-5.209311593E-011.3083692838E+01+
*       4.6142242744E+01               0
GRID*               2258               0-1.341001702E+001.3365990688E+01+
*       4.9015889058E+01               0
GRID*               2259               01.5218557767E+001.3218740086E+01+
*       4.9931354738E+01               0
GRID*               2260               0-1.874448416E-011.4054147113E+00+
*       6.0357492668E+01               0
GRID*               2261               0-2.113791963E+018.9127653195E+00+
*       2.8911593795E+01               0
GRID*               2262               0-7.482950222E+004.7498178742E+00+
*       5.5648750597E+00               0
GRID*               2263               0-5.121884157E+006.7595151921E+00+
*       1.7717506646E+00               0
GRID*               2264               0-9.010311053E+006.2042382742E+00+
*       3.1182509557E+00               0
GRID*               2265               0-6.732321881E+005.0300047822E+00+
*       3.6086647160E+00               0
GRID*               2266               02.0940198945E+011.4990234635E+00+
*       2.4935171756E+01               0
GRID*               2267               01.4080869224E+011.0822851833E+01+
*       3.4444363253E+00               0
GRID*               2268               02.0265909060E+00-1.462675300E+01+
*       5.3115461133E+01               0
GRID*               2269               02.6583579350E+00-1.206936843E+01+
*       5.3161329348E+01               0
GRID*               2270               02.1762171175E+011.3016682799E+00+
*       2.6883795189E+01               0
GRID*               2271               06.8649227609E+001.9887424924E+00+
*       3.7763250610E+01               0
GRID*               2272               01.0504682405E+011.6815015734E+00+
*       1.0610456296E+01               0
GRID*               2273               01.2574402300E+011.6096622504E+00+
*       9.8818661823E+00               0
GRID*               2274               08.8478478385E+001.4972768986E+00+
*       9.1735881136E+00               0
GRID*               2275               01.9836454105E+011.5121259575E+00+
*       3.0092412186E+01               0
GRID*               2276               0-8.222582878E+001.6812594594E+00+
*       1.4880930401E+01               0
GRID*               2277               0-2.109001271E+011.1391612727E+01+
*       5.9680166252E+00               0
GRID*               2278               0-1.824166139E+011.3359062343E+01+
*       1.2372401552E+01               0
GRID*               2279               0-1.648060706E+011.1245897839E+01+
*       1.4384350489E+01               0
GRID*               2280               0-1.534099115E+011.3064375260E+01+
*       1.4912104291E+01               0
GRID*               2281               0-1.605474557E+011.2979438810E+01+
*       1.2931504136E+01               0
GRID*               2282               01.8861794797E+013.6736389824E+00+
*       3.5524738233E+01               0
GRID*               2283               01.9330793016E+014.9087043195E+00+
*       3.6143449916E+01               0
GRID*               2284               01.5857525389E+013.3428862354E+00+
*       3.4825802239E+01               0
GRID*               2285               01.5678448384E+011.6851013875E+00+
*       1.3851815089E+01               0
GRID*               2286               01.3588648645E+012.6852481666E+00+
*       1.1783415157E+01               0
GRID*               2287               04.4588848264E+003.4284000849E+00+
*       2.9588897556E+01               0
GRID*               2288               02.7224986700E+001.8134189065E+00+
*       3.0548659093E+01               0
GRID*               2289               0-1.086238686E+011.3072650666E+01+
*       2.1401415369E+01               0
GRID*               2290               0-1.227350947E+011.2690573876E+01+
*       2.4848536890E+01               0
GRID*               2291               0-9.373139609E+001.3032746399E+01+
*       2.3762881322E+01               0
GRID*               2292               0-1.176007275E+011.3228469338E+01+
*       2.3024667140E+01               0
GRID*               2293               0-1.039805695E+011.2805450478E+01+
*       2.5109948786E+01               0
GRID*               2294               0-1.711104819E+001.8614768162E+00+
*       1.6813877604E+01               0
GRID*               2295               0-2.176683898E+001.8643643525E+00+
*       1.8140639625E+01               0
GRID*               2296               0-3.312019017E+001.6182967397E+00+
*       1.6869048918E+01               0
GRID*               2297               0-4.012680884E+002.1625277902E+00+
*       1.8103439530E+01               0
GRID*               2298               01.6952327829E+011.2343671206E+00+
*       2.6482150355E+01               0
GRID*               2299               01.6274352201E+011.2090527357E+00+
*       2.7838210816E+01               0
GRID*               2300               0-6.606028626E-021.3583878638E+01+
*       5.9391927401E+00               0
GRID*               2301               01.9249131879E+001.3217924996E+01+
*       5.5804360656E+00               0
GRID*               2302               03.5350534959E-011.2447602366E+01+
*       7.1888412228E+00               0
GRID*               2303               0-2.698275892E+003.3516241301E+00+
*       6.3481652042E+01               0
GRID*               2304               0-2.030620261E+001.3790633701E+00+
*       6.2419679442E+01               0
GRID*               2305               06.9733469936E+001.7903394397E+00+
*       4.4571764660E+01               0
GRID*               2306               0-2.552973610E+018.2427007430E+00+
*       1.2607179787E+01               0
GRID*               2307               0-2.482520807E+019.9225173299E+00+
*       1.4188219413E+01               0
GRID*               2308               0-2.467237913E+016.8685032236E+00+
*       1.5186504663E+01               0
GRID*               2309               0-2.342767049E+017.7968813002E+00+
*       1.1326099924E+01               0
GRID*               2310               0-2.592727723E+011.0430908332E+01+
*       1.0556221095E+01               0
GRID*               2311               0-1.393884284E-011.1400043153E+00+
*       6.3184486933E+01               0
GRID*               2312               03.1594297235E-013.6910825942E+00+
*       6.3723958995E+01               0
GRID*               2313               0-2.525614018E+011.1263486696E+01+
*       1.2280823319E+01               0
GRID*               2314               07.0259871284E+001.3302723611E+00+
*       1.7301837533E+01               0
GRID*               2315               01.0190485060E+011.4874104926E+00+
*       1.7606266552E+01               0
GRID*               2316               06.7960623454E+001.3482994631E+01+
*       5.8432532787E+01               0
GRID*               2317               09.4849142909E+001.2992729855E+01+
*       5.8356325414E+01               0
GRID*               2318               0-6.668635403E+002.3704187572E+00+
*       6.1937831814E+01               0
GRID*               2319               0-4.595847086E+002.1662674689E+00+
*       6.3227498564E+01               0
GRID*               2320               0-5.167789628E+004.1580805037E+00+
*       6.2843601971E+01               0
GRID*               2321               01.4289069526E+012.1879374032E+00+
*       2.0492692940E+01               0
GRID*               2322               01.7268046461E+011.9931840700E+00+
*       1.7869789353E+01               0
GRID*               2323               09.3128919871E+001.3122496678E+01+
*       2.2891270054E+01               0
GRID*               2324               0-3.658751208E+003.1421038713E+00+
*       3.9043639709E+01               0
GRID*               2325               0-1.937244195E+016.5278982004E+00+
*       3.6093405285E+01               0
GRID*               2326               03.7589855826E-021.9666756030E+00+
*       1.6207082734E+01               0
GRID*               2327               02.4835971479E+011.3131334595E+00+
*       7.8533738479E+00               0
GRID*               2328               06.1182485070E+003.8296514600E+00+
*       1.2941737876E+01               0
GRID*               2329               03.8944525492E-013.1240433240E+00+
*       3.6351685591E+01               0
GRID*               2330               04.4957661419E-011.7658985675E+00+
*       3.4361177464E+01               0
GRID*               2331               01.1381570881E+001.6756263022E+00+
*       3.8729927676E+01               0
GRID*               2332               09.0526646480E+002.5562944292E+00+
*       1.3451400804E+01               0
GRID*               2333               08.0027062021E+001.5491694441E+00+
*       1.5229740261E+01               0
GRID*               2334               01.2443658677E+011.3308978450E+00+
*       5.1648525588E+01               0
GRID*               2335               01.0485943863E+011.0990174090E+00+
*       4.9610241803E+01               0
GRID*               2336               01.5197659646E+011.1030984063E+01+
*       5.2595119328E+01               0
GRID*               2337               06.5904897037E+002.1427428938E+00+
*       1.8903692783E+01               0
GRID*               2338               01.4403633936E+011.1408449063E+01+
*       5.5195200318E+01               0
GRID*               2339               07.4705931758E+001.2807110643E+00+
*       2.1181639235E+01               0
GRID*               2340               01.1056512385E+011.4857249001E+00+
*       5.7600401546E+01               0
GRID*               2341               01.1990110037E+011.4323363345E+00+
*       5.5844652561E+01               0
GRID*               2342               03.6504478877E+00-1.733214630E+01+
*       4.7539001221E+01               0
GRID*               2343               07.7163501677E+001.3309832935E+01+
*       1.6900188204E+01               0
GRID*               2344               09.0252794401E+001.3550031882E+01+
*       1.5340624518E+01               0
GRID*               2345               0-6.113284732E+001.2792423849E+01+
*       7.5012374308E+00               0
GRID*               2346               01.0893574066E+011.4596838157E+00+
*       3.7288240251E+01               0
GRID*               2347               01.7482902007E+011.3650449745E+01+
*       2.5005793899E+01               0
GRID*               2348               04.4003961359E+00-1.497917741E+01+
*       5.1189274917E+01               0
GRID*               2349               05.5742141200E+00-1.286609360E+01+
*       5.2903958700E+01               0
GRID*               2350               0-2.692432277E+011.7385674346E+00+
*       5.6960022558E+00               0
GRID*               2351               0-2.402593120E+004.7176290667E+00+
*       1.4021864533E+00               0
GRID*               2352               0-3.239729550E+003.2837471625E+00+
*       1.5004735456E+00               0
GRID*               2353               0-4.236407096E+005.0412532477E+00+
*       1.4432570940E+00               0
GRID*               2354               09.9163742561E-011.3142615104E+01+
*       2.0547798924E+01               0
GRID*               2355               0-1.870971304E+004.6607044117E+00+
*       2.6842332893E+01               0
GRID*               2356               0-6.896450303E+001.1231026396E+01+
*       2.0553504247E+01               0
GRID*               2357               0-4.724653803E+001.2616028464E+01+
*       9.3131373872E+00               0
GRID*               2358               02.1571593478E+011.4929236125E+00+
*       5.2894484942E+00               0
GRID*               2359               0-2.262552266E+011.6250498875E+00+
*       5.7230518864E+00               0
GRID*               2360               0-1.588073753E+011.0167595844E+01+
*       1.4194260132E+00               0
GRID*               2361               0-1.484299752E+011.1865109217E+01+
*       1.5109765101E+00               0
GRID*               2362               01.7121256583E+011.1594235799E+01+
*       4.5458479442E+01               0
GRID*               2363               01.2505287305E+011.3539673557E+01+
*       5.4846121079E+01               0
GRID*               2364               0-5.556987920E+003.1994634640E+00+
*       5.4394704379E+01               0
GRID*               2365               05.4094079144E-01-1.824748480E+01+
*       5.3663932998E+01               0
GRID*               2366               0-1.430949833E+00-1.806713729E+01+
*       5.2696561648E+01               0
GRID*               2367               07.0508824187E-01-1.850453855E+01+
*       5.0283860476E+01               0
GRID*               2368               0-5.309257359E+001.7218596247E+00+
*       7.9005047965E+00               0
GRID*               2369               0-2.506751284E+011.2292982802E+00+
*       6.7159491142E+00               0
GRID*               2370               0-3.454727099E+006.7105385740E+00+
*       1.4257317757E+00               0
GRID*               2371               0-1.676596866E+001.3472066969E+01+
*       3.0857734576E+01               0
GRID*               2372               04.8182207536E-011.3175182345E+01+
*       3.1909667874E+01               0
GRID*               2373               0-2.226282898E+011.3699554791E+01+
*       7.8242875258E+00               0
GRID*               2374               0-1.005896185E+011.3760539947E+01+
*       1.8088678644E+01               0
GRID*               2375               02.7464502514E+011.3225036264E+01+
*       3.4893532965E+00               0
GRID*               2376               06.2138915956E+001.0802935098E+01+
*       1.0526322113E+01               0
GRID*               2377               0-2.351517690E+018.0710470795E+00+
*       1.9238489003E+01               0
GRID*               2378               0-2.221612614E+011.3611594193E+01+
*       9.8942389043E+00               0
GRID*               2379               0-5.765346926E+001.2515808163E+01+
*       1.8092809440E+00               0
GRID*               2380               01.7958116035E+011.3577410229E+01+
*       4.7654392124E+00               0
GRID*               2381               01.6091013956E+011.3774273668E+01+
*       2.2680344514E+01               0
GRID*               2382               01.7762054969E+011.7795383355E+00+
*       9.3888323332E+00               0
GRID*               2383               01.8982658781E+011.4572213254E+00+
*       1.0648809943E+01               0
GRID*               2384               0-2.324378136E+013.1859076726E+00+
*       1.9202458844E+00               0
GRID*               2385               0-9.943231843E+001.3111773078E+00+
*       1.8551073739E+00               0
GRID*               2386               0-9.134135508E+003.3687376969E+00+
*       1.7045302922E+00               0
GRID*               2387               02.4543871196E+011.3107273948E+01+
*       5.3061464559E+00               0
GRID*               2388               02.5782392088E+011.2958877587E+01+
*       7.6422414894E+00               0
GRID*               2389               0-6.338485351E+005.1535108736E+00+
*       1.3011984211E+00               0
GRID*               2390               0-2.725997425E+001.4408630917E+00+
*       9.7751264318E+00               0
GRID*               2391               0-9.043682334E-011.1348513734E+00+
*       9.4399573735E+00               0
GRID*               2392               04.0454981678E+00-1.190843589E+01+
*       5.5833158489E+01               0
GRID*               2393               04.9508257741E+00-1.626505266E+01+
*       5.3892521102E+01               0
GRID*               2394               0-8.968485393E+003.4907600790E+00+
*       6.1324146068E+01               0
GRID*               2395               02.3387063372E+016.6785832916E+00+
*       1.9521994136E+01               0
GRID*               2396               02.2876028007E+016.4000107873E+00+
*       2.0828603978E+01               0
GRID*               2397               02.1523120987E+015.4833016841E+00+
*       2.1255723382E+01               0
GRID*               2398               01.9464866514E+013.3819767440E+00+
*       2.0715111190E+01               0
GRID*               2399               0-8.220775866E+001.8773589076E+00+
*       2.5120210082E+01               0
GRID*               2400               07.1265796427E-011.6988440163E+00+
*       1.4087454740E+01               0
GRID*               2401               02.4003333563E-011.2884211031E+01+
*       1.6182388177E+00               0
GRID*               2402               02.1195794205E+011.1972500477E+01+
*       1.3315891337E+00               0
GRID*               2403               01.3276754905E+011.3824943746E+01+
*       1.9372311857E+01               0
GRID*               2404               01.5735803723E+011.3515931092E+01+
*       1.9491611820E+01               0
GRID*               2405               01.3388565875E+011.3914018967E+00+
*       1.8950103741E+01               0
GRID*               2406               01.6467151643E+012.9156540529E+00+
*       2.4453293599E+01               0
GRID*               2407               01.7357525359E+013.8832528034E+00+
*       2.6396261921E+01               0
GRID*               2408               02.0059897350E+011.3512882929E+01+
*       1.6928299143E+00               0
GRID*               2409               01.9187048182E+011.1672057443E+01+
*       1.6718728397E+00               0
GRID*               2410               01.5719532794E+011.4376363829E+00+
*       2.2677844354E+01               0
GRID*               2411               01.4056074872E+011.3072713783E+00+
*       2.4500245957E+01               0
GRID*               2412               01.3681612273E+011.3204847683E+01+
*       1.6836941430E+00               0
GRID*               2413               01.1669772433E+011.3646119326E+01+
*       4.7982370721E+01               0
GRID*               2414               07.9852162112E+002.0912195698E+00+
*       2.4225264562E+01               0
GRID*               2415               02.2330102306E+015.0291477818E+00+
*       2.4636605786E+01               0
GRID*               2416               01.2533200651E+011.6755276971E+00+
*       4.1605644483E+01               0
GRID*               2417               02.4113991675E+019.3516993023E+00+
*       1.6902575871E+01               0
GRID*               2418               01.0313731203E+011.8363651224E+00+
*       3.4071540437E+01               0
GRID*               2419               01.1700542942E+011.2568667097E+01+
*       2.3398644433E+01               0
GRID*               2420               01.2441534999E+011.3575043892E+01+
*       2.1721355857E+01               0
GRID*               2421               01.2761608361E+011.3573455905E+00+
*       2.0376901409E+01               0
GRID*               2422               0-1.947622251E+011.1497174724E+01+
*       6.3049921178E+00               0
GRID*               2423               02.3348037807E+011.3740642150E+01+
*       3.8484272893E+00               0
GRID*               2424               02.0645957143E+011.9558931378E+00+
*       6.8265832536E+00               0
GRID*               2425               01.9837485928E+012.0256754126E+00+
*       8.5959558238E+00               0
GRID*               2426               0-1.696373802E+001.2972565897E+01+
*       1.6655806435E+00               0
GRID*               2427               01.1776982405E+015.8228123815E+00+
*       5.8412009323E+01               0
GRID*               2428               0-4.579731433E+009.3942317500E+00+
*       6.3402197392E+01               0
GRID*               2429               01.7909198053E+014.3794546705E+00+
*       3.5128378665E+00               0
GRID*               2430               0-2.047262454E+011.3040619561E+01+
*       2.8714577579E+01               0
GRID*               2431               05.7599735952E+00-7.946368555E-01+
*       5.3153766222E+01               0
GRID*               2432               0-1.428188968E+011.3662088879E+01+
*       5.4669768942E+00               0
GRID*               2433               0-1.097265933E+011.1617365818E+01+
*       1.6795474627E+00               0
GRID*               2434               01.9733641661E+011.3661979992E+01+
*       5.6841938497E+00               0
GRID*               2435               02.9029845348E+001.9378307437E+00+
*       3.4002316493E+01               0
GRID*               2436               0-1.965410649E+011.1888651899E+01+
*       3.3234318242E+01               0
GRID*               2437               0-1.565094574E+011.3915035992E+00+
*       5.5293896816E+00               0
GRID*               2438               0-1.586036811E+012.0981121375E+00+
*       7.1285618440E+00               0
GRID*               2439               0-1.775364542E+011.5477251717E+00+
*       5.5596293407E+00               0
GRID*               2440               0-1.974155346E+011.0104385210E+01+
*       1.5095339550E+00               0
GRID*               2441               01.8413550682E+011.1230061934E+01+
*       4.0720733392E+01               0
GRID*               2442               01.1460753806E+011.8652293190E+00+
*       3.5469192438E+01               0
GRID*               2443               07.5967522492E-013.5940892243E+00+
*       1.1339186307E+00               0
GRID*               2444               01.1622120252E+011.3430803355E+01+
*       2.9702907542E+01               0
GRID*               2445               04.9950738473E+00-1.590805663E+01+
*       4.8532090663E+01               0
GRID*               2446               01.0334203684E+011.2900971622E+01+
*       2.0968592787E+01               0
GRID*               2447               0-1.479723947E+013.7906505937E+00+
*       3.6676732846E+01               0
GRID*               2448               03.1546377071E+001.2819611912E+00+
*       3.3021664912E+00               0
GRID*               2449               01.4972307895E+001.4475736170E+00+
*       4.3602196629E+00               0
GRID*               2450               02.4102778022E+018.3124714446E+00+
*       1.8606583287E+01               0
GRID*               2451               0-4.561269042E+001.3456501920E+01+
*       5.9558589120E+01               0
GRID*               2452               0-1.855695977E+018.1734305851E+00+
*       1.2896706564E+00               0
GRID*               2453               05.3624737056E+001.4221750062E+00+
*       6.1897998955E+00               0
GRID*               2454               03.7147815075E+001.7818602146E+00+
*       5.2357044897E+00               0
GRID*               2455               0-1.635021242E+011.3556454891E+01+
*       3.2912536086E+01               0
GRID*               2456               0-1.520705672E+011.3552033350E+01+
*       3.4769408179E+01               0
GRID*               2457               0-1.467955627E+011.3220592934E+00+
*       2.8541615686E+01               0
GRID*               2458               01.1255922596E+011.9421183892E+00+
*       1.2409745474E+01               0
GRID*               2459               0-2.081448435E+011.0727570406E+01+
*       3.0096089235E+01               0
GRID*               2460               0-4.089779860E+001.8680493929E+00+
*       4.3886243153E+01               0
GRID*               2461               0-6.182533363E+001.5894784760E+00+
*       4.5375601516E+01               0
GRID*               2462               0-6.322599589E-011.7947688972E+00+
*       4.2262723071E+01               0
GRID*               2463               0-2.836663706E+002.0188222441E+00+
*       4.1953366235E+01               0
GRID*               2464               0-2.315265717E+011.3736559766E+01+
*       1.8229003766E+01               0
GRID*               2465               0-1.391130136E+011.2505621665E+01+
*       3.3892781341E+01               0
GRID*               2466               0-1.683684844E+018.0962302239E+00+
*       4.6679749941E+01               0
GRID*               2467               0-1.398625953E+011.3443212218E+01+
*       4.8291193475E+01               0
GRID*               2468               0-1.207515583E+011.2946049946E+01+
*       1.9414460453E+01               0
GRID*               2469               07.6554970898E+004.9293877637E+00+
*       1.7888662939E+00               0
GRID*               2470               07.2173358481E+002.2703044326E+00+
*       7.0505619509E+00               0
GRID*               2471               0-1.195164221E+011.3437735384E+01+
*       4.9117507612E+01               0
GRID*               2472               03.4291839986E+001.3274737998E+01+
*       1.9318425631E+01               0
GRID*               2473               03.8914835756E+001.2171815168E+01+
*       2.4979807853E+01               0
GRID*               2474               05.2501627574E+001.3081209663E+01+
*       4.8459650755E+01               0
GRID*               2475               01.5118186795E+011.3443566331E+01+
*       3.5147725965E+01               0
GRID*               2476               01.6380358430E+011.3490958925E+01+
*       4.5784985157E+01               0
GRID*               2477               01.4411378476E+011.3666580503E+01+
*       4.0521616015E+01               0
GRID*               2478               0-1.967429894E-011.3163204938E+01+
*       3.3778103399E+01               0
GRID*               2479               01.5168413279E+012.7205172043E+00+
*       5.2528312437E+01               0
GRID*               2480               01.2699763154E+011.3109191357E+01+
*       5.7125363514E+01               0
GRID*               2481               01.1927328094E+011.1383840639E+01+
*       5.8819930832E+01               0
GRID*               2482               01.2553905232E+019.9680170357E+00+
*       5.7912761217E+01               0
GRID*               2483               06.6658858073E+001.5159064379E+00+
*       2.2688595329E+01               0
GRID*               2484               05.4391351901E+002.4836754338E+00+
*       2.4324551487E+01               0
GRID*               2485               01.5244046096E+014.4144264846E+00+
*       5.1996308357E+01               0
GRID*               2486               0-1.219058954E+002.2175150861E+00+
*       2.3306853868E+01               0
GRID*               2487               0-2.022306792E+002.3267538402E+00+
*       2.5092211325E+01               0
GRID*               2488               0-1.346578641E+002.1510225851E+00+
*       2.6363147613E+01               0
GRID*               2489               0-6.742568801E+001.0982169762E+01+
*       2.5965704099E+01               0
GRID*               2490               0-7.831650170E-011.3007629845E+01+
*       5.5729134083E+01               0
GRID*               2491               0-1.424451977E+011.3014519345E+01+
*       5.2183222581E+01               0
GRID*               2492               0-3.973541810E+001.9731151418E+00+
*       1.3266119462E+01               0
GRID*               2493               0-8.347706299E+007.7840073397E+00+
*       6.1553051597E+01               0
GRID*               2494               0-4.402344414E+001.4711226974E+00+
*       1.4785444762E+01               0
GRID*               2495               03.7394239379E+001.1267928967E+01+
*       3.2645426627E+00               0
GRID*               2496               0-3.289570213E+001.9868892738E+00+
*       1.1351966237E+01               0
GRID*               2497               0-4.371786172E+002.1021204537E+00+
*       9.5381663555E+00               0
GRID*               2498               0-3.651234926E+00-1.752812284E+01+
*       4.7161589884E+01               0
GRID*               2499               0-2.034755589E+00-1.858016978E+01+
*       5.5903248516E+01               0
GRID*               2500               01.6618968064E+013.8105089743E+00+
*       4.7073934158E+01               0
GRID*               2501               09.0602877044E+001.2741664071E+01+
*       7.6468839004E+00               0
GRID*               2502               01.3634337672E+011.3267395051E+01+
*       7.4431383199E+00               0
GRID*               2503               01.1287428386E+011.1798362703E+01+
*       6.5728471499E+00               0
GRID*               2504               01.0945137705E+011.3522884125E+01+
*       7.3502385463E+00               0
GRID*               2505               08.5298406260E+001.3427254341E+01+
*       4.2518922851E+01               0
GRID*               2506               0-1.776872296E+011.3505424366E+01+
*       2.9229468018E+01               0
GRID*               2507               0-1.505864318E+011.3706848472E+01+
*       2.9593978270E+01               0
GRID*               2508               06.0406265696E-01-1.837686766E+01+
*       4.8172122164E+01               0
GRID*               2509               02.1330857523E+00-1.871044316E+01+
*       4.6305409249E+01               0
GRID*               2510               0-1.992911342E+011.3661537362E+01+
*       3.2380634793E+01               0
GRID*               2511               0-1.976902345E+011.3205068755E+01+
*       3.4343801785E+01               0
GRID*               2512               0-1.841410431E+011.3362783463E+01+
*       3.2311383054E+01               0
GRID*               2513               01.8447957847E+012.6100955510E+00+
*       1.8886959011E+01               0
GRID*               2514               02.1231398844E+012.1386816003E+00+
*       2.1275922924E+01               0
GRID*               2515               0-2.933936532E+001.3230746528E+01+
*       4.3602344392E+01               0
GRID*               2516               0-1.301199662E+001.2518992736E+01+
*       4.1594637406E+01               0
GRID*               2517               02.0976886156E+011.3709096922E+01+
*       3.0830516564E+00               0
GRID*               2518               01.5454440485E+014.9978408046E+00+
*       4.4480334466E+01               0
GRID*               2519               01.3812489380E+011.3673989868E+01+
*       5.2648594159E+01               0
GRID*               2520               0-3.397811248E+002.4680248555E+00+
*       3.3951363515E+01               0
GRID*               2521               0-1.245481071E+011.2864621308E+01+
*       3.8307671191E+01               0
GRID*               2522               01.8259136897E+011.3322173360E+01+
*       1.5204082187E+01               0
GRID*               2523               01.7181963298E+011.2956248136E+01+
*       1.6592638924E+01               0
GRID*               2524               0-1.934875637E+011.3538447123E+01+
*       3.0686022858E+01               0
GRID*               2525               0-1.883355787E+011.1749455731E+01+
*       3.0380084981E+01               0
GRID*               2526               0-1.675734751E+011.3577696902E+01+
*       3.0947159037E+01               0
GRID*               2527               01.0333678703E+011.3612342038E+01+
*       1.5382595807E+01               0
GRID*               2528               0-1.683809763E+014.8350724829E+00+
*       4.6825884601E+01               0
GRID*               2529               0-5.777502139E+003.0202036436E+00+
*       4.1934089297E+00               0
GRID*               2530               0-5.291940356E+003.1079884338E+00+
*       1.6957415797E+00               0
GRID*               2531               0-3.735989963E+003.3107632565E+00+
*       4.1422508122E+00               0
GRID*               2532               01.6301536909E+011.9597216912E+00+
*       4.8409329249E+01               0
GRID*               2533               02.7969430005E+018.5326839689E+00+
*       2.1661660685E+00               0
GRID*               2534               02.7558785279E+018.7260121402E+00+
*       4.3492954811E+00               0
GRID*               2535               0-2.174179661E+011.3257198605E+01+
*       1.6270438307E+01               0
GRID*               2536               0-2.340523580E+011.1359644167E+01+
*       1.3581060768E+01               0
GRID*               2537               0-2.433314689E+011.2310563214E+01+
*       1.6380750898E+01               0
GRID*               2538               01.2908275179E+011.8422150144E+00+
*       3.2668025714E+01               0
GRID*               2539               0-2.180402014E+019.5839881502E+00+
*       2.6666305457E+01               0
GRID*               2540               0-2.068322907E+011.2208326721E+01+
*       3.1312148385E+01               0
GRID*               2541               07.4351407684E+001.2632920461E+01+
*       3.4572097083E+01               0
GRID*               2542               0-2.723754701E+018.5512419425E+00+
*       3.7949155716E+00               0
GRID*               2543               02.1845416621E+019.9561617892E+00+
*       2.5464303223E+01               0
GRID*               2544               0-2.460747292E+011.3305581443E+01+
*       7.7670977757E+00               0
GRID*               2545               0-1.611314261E+011.1461296041E+01+
*       3.7204200330E+00               0
GRID*               2546               0-1.638110517E+018.5341041696E+00+
*       1.1925299820E+00               0
GRID*               2547               01.0521535698E+007.3882567343E+00+
*       1.4775972995E+00               0
GRID*               2548               01.6754351292E+005.0084604912E+00+
*       1.5276737074E+00               0
GRID*               2549               0-8.650157743E+001.3692889448E+01+
*       5.5163057726E+00               0
GRID*               2550               0-7.271251488E+001.3565790437E+01+
*       3.9075575446E+00               0
GRID*               2551               0-9.018838054E+009.7342169744E+00+
*       1.6106572878E+00               0
GRID*               2552               0-1.773915467E+011.3241267467E+01+
*       9.1890718583E+00               0
GRID*               2553               0-1.587249117E+011.3167903646E+01+
*       9.1661344028E+00               0
GRID*               2554               0-1.860902730E+011.3213199706E+01+
*       7.3687220921E+00               0
GRID*               2555               0-1.700179100E+011.2654663374E+01+
*       6.9544662372E+00               0
GRID*               2556               0-6.121707375E+001.0287482516E+01+
*       3.6693820972E+00               0
GRID*               2557               0-7.419141768E+009.8728934971E+00+
*       1.3840601702E+00               0
GRID*               2558               0-7.751248105E+001.2923480054E+01+
*       1.5686499843E+00               0
GRID*               2559               02.4969601872E+019.7987246422E+00+
*       1.3468219106E+01               0
GRID*               2560               02.4655660463E+019.9364853410E+00+
*       1.5445653497E+01               0
GRID*               2561               02.5173012983E+018.3790792559E+00+
*       1.2669099900E+01               0
GRID*               2562               0-1.355546988E+013.1031102131E+00+
*       5.6495347556E+01               0
GRID*               2563               01.7006223561E+011.3500392155E+01+
*       3.3767801058E+00               0
GRID*               2564               01.5742988507E+011.3488636072E+01+
*       5.3246354347E+00               0
GRID*               2565               01.0357184274E+011.3144185186E+01+
*       1.5218600329E+00               0
GRID*               2566               0-2.421304821E+011.6202142513E+00+
*       1.7156933993E+01               0
GRID*               2567               0-2.219326897E+011.4260940323E+00+
*       1.7641703815E+01               0
GRID*               2568               0-2.372148826E+012.9155910020E+00+
*       1.9063226024E+01               0
GRID*               2569               0-2.166669409E+013.5886862935E+00+
*       1.7390018598E+01               0
GRID*               2570               0-2.437399108E+015.0192057486E+00+
*       1.7257214890E+01               0
GRID*               2571               0-2.391891985E+014.8846986183E+00+
*       1.9724155396E+01               0
GRID*               2572               0-2.447961680E+015.0874068695E+00+
*       1.5472860244E+01               0
GRID*               2573               0-1.547508361E+011.0708608752E+01+
*       4.5720423993E+01               0
GRID*               2574               05.9460562510E+001.2463832425E+01+
*       1.7400973190E+01               0
GRID*               2575               06.3432073128E+001.2543654706E+01+
*       2.1161506524E+01               0
GRID*               2576               0-8.192055154E+001.3633670923E+01+
*       5.9522964884E+01               0
GRID*               2577               0-5.356740936E+001.3117485490E+00+
*       6.0563470783E+01               0
GRID*               2578               05.3924401299E+001.3357293463E+01+
*       6.0920564279E+01               0
GRID*               2579               04.0737364647E+001.3656009661E+01+
*       5.9067500884E+01               0
GRID*               2580               01.0012243389E+011.7788747600E+00+
*       1.4948659260E+00               0
GRID*               2581               01.2576088825E+011.1582113873E+01+
*       1.0264371455E+00               0
GRID*               2582               01.4298275368E+011.0197504346E+01+
*       1.4994955804E+00               0
GRID*               2583               02.6046267303E+013.6422210263E+00+
*       1.0069779010E+01               0
GRID*               2584               02.5574849742E+012.0438902286E+00+
*       1.1052979917E+01               0
GRID*               2585               02.4892687736E+013.4209180314E+00+
*       1.3989060557E+01               0
GRID*               2586               02.5225297974E+013.2476091350E+00+
*       1.2011006117E+01               0
GRID*               2587               02.5540653250E+015.5599068190E+00+
*       1.2519888815E+01               0
GRID*               2588               04.3517418385E+00-2.869855863E+00+
*       5.5568076939E+01               0
GRID*               2589               01.8433715266E+011.3491480806E+01+
*       2.3476000979E+01               0
GRID*               2590               01.6759652928E+011.2526884337E+01+
*       2.3640939744E+01               0
GRID*               2591               0-1.432908894E+012.8036892119E+00+
*       3.0015335176E+01               0
GRID*               2592               01.0995095162E+011.2378232221E+00+
*       4.7764714828E+01               0
GRID*               2593               09.7022413962E+001.5182435157E+00+
*       4.7494639376E+01               0
GRID*               2594               01.3984805696E+011.3701629495E+01+
*       5.3687873981E+00               0
GRID*               2595               01.1815623491E+011.3506859622E+01+
*       5.5267486240E+00               0
GRID*               2596               01.0848372835E+011.3232086361E+01+
*       3.8182126890E+00               0
GRID*               2597               02.2779546395E+001.8552476650E+00+
*       6.1719590255E+01               0
GRID*               2598               06.6280321791E+002.2901248244E+00+
*       6.2080294266E+01               0
GRID*               2599               01.4773655021E+011.2762890121E+01+
*       5.4215378855E+01               0
GRID*               2600               01.9997632721E+015.1237540444E+00+
*       1.4627311511E+00               0
GRID*               2601               0-1.087532015E+013.2242399368E+00+
*       1.6697311972E+00               0
GRID*               2602               01.4848201829E+013.6386432363E+00+
*       4.5478733962E+01               0
GRID*               2603               01.4513369150E+014.0206680053E+00+
*       5.4224498309E+01               0
GRID*               2604               01.6325553417E+011.1808031965E+01+
*       3.6588852989E+00               0
GRID*               2605               01.1257918149E+014.2511270235E+00+
*       5.9327112796E+01               0
GRID*               2606               01.5890621198E+011.0008165492E+01+
*       1.6748099733E+00               0
GRID*               2607               01.8148659517E+011.1670587111E+01+
*       3.3534559799E+00               0
GRID*               2608               01.6048625115E+011.3430409831E+01+
*       1.7277352560E+00               0
GRID*               2609               01.7264615692E+011.1721374076E+01+
*       1.6273509828E+00               0
GRID*               2610               01.3982859948E+019.8093334323E+00+
*       5.5880359069E+01               0
GRID*               2611               08.4404380333E-011.3549714486E+01+
*       5.4249404593E+01               0
GRID*               2612               0-3.995604116E+001.3450528017E+01+
*       5.3703590853E+01               0
GRID*               2613               0-9.069497522E+001.9248882508E+00+
*       5.2680829887E+01               0
GRID*               2614               01.1183643669E+012.4306674984E+00+
*       2.3142160134E+01               0
GRID*               2615               01.2649239195E+011.8171355634E+00+
*       2.4767656087E+01               0
GRID*               2616               0-1.039612562E+015.2949257038E+00+
*       1.2106477564E+00               0
GRID*               2617               0-1.258080440E+014.7949244091E+00+
*       1.2205104821E+00               0
GRID*               2618               01.5202703612E+00-1.008411266E+01+
*       5.7511235765E+01               0
GRID*               2619               01.1696134253E+011.9821528797E+00+
*       2.1757681528E+01               0
GRID*               2620               0-1.337425871E+013.3895411239E+00+
*       1.5857145236E+00               0
GRID*               2621               0-1.551657724E+013.4209583207E+00+
*       2.0060060067E+00               0
GRID*               2622               02.6345306442E+00-1.856684034E+01+
*       4.9343253011E+01               0
GRID*               2623               0-8.261499854E+001.3203151437E+01+
*       3.2439914133E+01               0
GRID*               2624               0-1.029987654E+011.2614130544E+01+
*       3.2468038166E+01               0
GRID*               2625               0-9.047073694E+001.3505468841E+01+
*       3.0292063344E+01               0
GRID*               2626               0-2.285072549E+011.3666581267E+01+
*       6.3638332919E+00               0
GRID*               2627               04.1449048961E+001.5491882480E+00+
*       2.5332697965E+01               0
GRID*               2628               0-9.001936517E+007.1710106117E+00+
*       1.2094271916E+00               0
GRID*               2629               01.3313435826E+002.3969050514E+00+
*       2.8564062973E+01               0
GRID*               2630               0-8.329008286E+005.0116353789E+00+
*       1.3015361292E+00               0
GRID*               2631               03.2800133022E+001.9708560689E+00+
*       2.8201927400E+01               0
GRID*               2632               06.3087550048E-011.2571546148E+00+
*       3.6275107728E+01               0
GRID*               2633               09.4519693708E+001.3200635775E+01+
*       4.3976225909E+01               0
GRID*               2634               0-1.898646894E+013.5065998313E+00+
*       3.7617063337E+01               0
GRID*               2635               0-1.437110967E+013.3419008335E+00+
*       5.4770887151E+01               0
GRID*               2636               0-1.306418513E+011.2815934188E+01+
*       2.1162237730E+01               0
GRID*               2637               01.5533240208E+011.3735835204E+01+
*       3.8087717469E+01               0
GRID*               2638               0-8.952426103E+002.9211990935E+00+
*       9.4061931684E+00               0
GRID*               2639               01.6487595356E+011.4327504782E+00+
*       1.9670520807E+01               0
GRID*               2640               01.1486243263E+011.2960332146E+01+
*       3.2585457377E+01               0
GRID*               2641               0-8.921513019E+002.8469545439E+00+
*       4.3117685355E+01               0
GRID*               2642               0-6.836691054E+002.1783060735E+00+
*       3.9272921540E+01               0
GRID*               2643               0-1.172411983E+011.4662265313E+00+
*       5.5469463556E+00               0
GRID*               2644               0-9.467262688E+001.5725666061E+00+
*       7.5991150986E+00               0
GRID*               2645               0-2.701157817E+013.7529390982E+00+
*       4.9340586888E+00               0
GRID*               2646               0-2.305564716E+017.0029051180E+00+
*       2.2068242659E+01               0
GRID*               2647               04.3420793710E+001.2649091495E+01+
*       3.4648277063E+01               0
GRID*               2648               05.7853530195E+001.3158262866E+01+
*       3.4572779265E+01               0
GRID*               2649               05.6889827297E+001.3145985347E+01+
*       3.3052047413E+01               0
GRID*               2650               02.6474262674E+001.3722731489E+01+
*       3.4536659554E+01               0
GRID*               2651               0-8.979074215E+001.2692266877E+01+
*       3.6509847645E+01               0
GRID*               2652               0-7.165616434E+001.2822068590E+01+
*       3.4400514500E+01               0
GRID*               2653               0-5.499373798E+001.7564492220E+00+
*       5.8689305238E+01               0
GRID*               2654               0-1.677896325E+011.5570957728E+00+
*       4.2324732427E+01               0
GRID*               2655               0-8.078933203E+001.3753723146E+00+
*       5.9495671319E+01               0
GRID*               2656               02.7311174786E+003.5278414540E+00+
*       3.6520626339E+00               0
GRID*               2657               04.4558258487E+002.7236954823E+00+
*       1.4950577383E+00               0
GRID*               2658               01.6298584479E+001.0813737206E+01+
*       3.4677373824E+00               0
GRID*               2659               02.7749869067E+001.3379727676E+01+
*       3.6599368889E+00               0
GRID*               2660               02.0549465094E+001.2875445436E+01+
*       1.4889031942E+00               0
GRID*               2661               04.1081593390E+001.3345897835E+01+
*       1.8493798586E+00               0
GRID*               2662               0-9.936529641E+001.5212601136E+00+
*       5.8222772888E+01               0
GRID*               2663               0-1.453399134E+015.1438308966E+00+
*       1.3744296467E+00               0
GRID*               2664               0-1.587049088E+011.3580522233E+00+
*       1.3121616928E+01               0
GRID*               2665               0-1.714286907E+011.6266371453E+00+
*       1.5288956416E+01               0
GRID*               2666               0-1.832342333E+014.7954302944E+00+
*       1.5133649403E+00               0
GRID*               2667               0-1.892866169E+013.2732458696E+00+
*       1.3791058388E+00               0
GRID*               2668               0-1.305293463E+015.0513673841E+00+
*       5.7248444547E+01               0
GRID*               2669               0-8.878396134E+001.4856659535E+00+
*       3.8570229543E+00               0
GRID*               2670               0-1.104973963E+011.4869072703E+00+
*       3.5319520652E+00               0
GRID*               2671               04.9201477195E+001.3548942386E+01+
*       3.1310848630E+01               0
GRID*               2672               03.8709776145E+001.3298102476E+01+
*       2.9489394393E+01               0
GRID*               2673               0-3.407494971E-011.8513444227E+00+
*       1.8426701937E+01               0
GRID*               2674               01.4360709930E+011.9551409312E+00+
*       1.6275640014E+01               0
GRID*               2675               04.2644778086E+001.3235427374E+01+
*       2.5917482892E+01               0
GRID*               2676               05.0227264012E+001.2889791111E+01+
*       2.7347207956E+01               0
GRID*               2677               01.5334546861E+011.2297302216E+00+
*       1.8291048886E+01               0
GRID*               2678               01.1826470996E+011.8611504515E+00+
*       1.7749802471E+01               0
GRID*               2679               06.1081421419E+001.3136168748E+01+
*       2.5989169899E+01               0
GRID*               2680               02.3734507500E+015.1939284654E+00+
*       1.8600436609E+01               0
GRID*               2681               0-2.111629714E+011.9369493716E+00+
*       3.4201810668E+00               0
GRID*               2682               01.8523179867E+011.4348572949E+00+
*       5.3774325741E+00               0
GRID*               2683               0-1.994468083E+011.8066315521E+00+
*       5.0709967539E+00               0
GRID*               2684               0-1.783976050E+011.9787009241E+00+
*       7.4176057023E+00               0
GRID*               2685               07.0641253717E+001.3175469117E+01+
*       3.1817632730E+01               0
GRID*               2686               05.3793880455E+001.3140926541E+01+
*       1.9524658704E+01               0
GRID*               2687               0-9.126571115E+001.8960094138E+00+
*       2.6617848089E+01               0
GRID*               2688               01.2465524393E+011.1433099119E+00+
*       4.3687177627E+01               0
GRID*               2689               0-7.191697324E+001.6500521505E+00+
*       2.6718501954E+01               0
GRID*               2690               0-4.762938551E+001.5331425122E+00+
*       2.0054002750E+01               0
GRID*               2691               0-6.021888053E+001.8937600682E+00+
*       2.1575634801E+01               0
GRID*               2692               0-5.266690620E+001.9298482786E+00+
*       2.2765231363E+01               0
GRID*               2693               01.6732742466E+011.2608508582E+00+
*       5.8326276409E+00               0
GRID*               2694               01.5989093373E+011.6662320072E+00+
*       7.7432620594E+00               0
GRID*               2695               01.7851514458E+012.3112037811E+00+
*       7.3255098949E+00               0
GRID*               2696               0-2.864340827E+001.4960010748E+00+
*       3.0207392599E+01               0
GRID*               2697               0-5.446915209E+001.1099448274E+00+
*       2.9437899534E+01               0
GRID*               2698               0-4.435804377E+001.7463341997E+00+
*       2.8265510950E+01               0
GRID*               2699               0-1.972440005E+001.8056365016E+00+
*       2.8337158749E+01               0
GRID*               2700               0-8.428286502E-011.6103875195E+00+
*       3.0051517870E+01               0
GRID*               2701               05.7236255254E+001.4638218008E+00+
*       1.3154236056E+01               0
GRID*               2702               0-1.471400669E+011.2567452123E+01+
*       1.1074765151E+01               0
GRID*               2703               0-1.713646750E+011.3447433611E+01+
*       1.0647505288E+01               0
GRID*               2704               0-4.995507283E+001.6343292914E+00+
*       1.6456560145E+01               0
GRID*               2705               0-1.068297647E+011.3272009224E+01+
*       1.4071205037E+01               0
GRID*               2706               0-1.180185433E+011.3408749764E+01+
*       1.6390288961E+01               0
GRID*               2707               0-8.804538015E+001.3496342621E+01+
*       1.5025086109E+01               0
GRID*               2708               0-7.929039794E+001.3679537691E+00+
*       1.8727605976E+00               0
GRID*               2709               0-6.871370650E+001.4816659673E+00+
*       3.8412354150E+00               0
GRID*               2710               0-2.095181143E+011.1541160463E+01+
*       1.3043978183E+00               0
GRID*               2711               0-2.009801052E+011.3893810836E+00+
*       1.8308596109E+00               0
GRID*               2712               0-2.118313267E+011.3099230252E+01+
*       7.4563422116E+00               0
GRID*               2713               0-1.903271187E+011.2689231735E+01+
*       1.0978123860E+01               0
GRID*               2714               0-2.007822815E+011.2804171272E+01+
*       9.4663049319E+00               0
GRID*               2715               0-6.458602907E+001.1355021437E+00+
*       1.4718241118E+01               0
GRID*               2716               0-6.242710790E+001.3366466342E+01+
*       1.8379953771E+01               0
GRID*               2717               0-1.472115514E+011.2507358636E+01+
*       3.2054269791E+01               0
GRID*               2718               0-1.775813943E+011.3366056610E+01+
*       3.4599331730E+01               0
GRID*               2719               0-1.755099592E+011.3301409331E+01+
*       3.6177947978E+01               0
GRID*               2720               0-2.031794117E+013.1680268575E+00+
*       2.8537891879E+01               0
GRID*               2721               0-1.609023664E+011.1755750279E+00+
*       2.3418256854E+01               0
GRID*               2722               0-9.886104220E+001.5847962329E+00+
*       5.4688201703E+00               0
GRID*               2723               0-1.533586286E+011.3358875467E+00+
*       9.3574431442E+00               0
GRID*               2724               01.1099864052E+001.3122781013E+01+
*       2.3798533773E+01               0
GRID*               2725               0-6.918236558E-011.2933745524E+01+
*       2.5790284915E+01               0
GRID*               2726               0-8.395480715E-011.3517715581E+01+
*       2.2485117796E+01               0
GRID*               2727               06.3900888070E+001.3507308458E+01+
*       1.0311701106E+01               0
GRID*               2728               03.3099713302E+001.2647323170E+01+
*       6.9806617121E+00               0
GRID*               2729               05.6200171647E+001.3559760703E+01+
*       7.5110890832E+00               0
GRID*               2730               08.9778041779E+001.2704869664E+01+
*       2.8031812679E+01               0
GRID*               2731               0-3.917951299E+001.2743186684E+01+
*       1.4645799573E+00               0
GRID*               2732               0-3.383755522E+001.0040904445E+01+
*       1.4292153123E+00               0
GRID*               2733               04.6493862330E-012.0702259752E+00+
*       1.0727343285E+01               0
GRID*               2734               0-2.506901197E+011.3094537622E+01+
*       1.3350967848E+01               0
GRID*               2735               0-2.338924246E+011.3590961432E+01+
*       1.1848858817E+01               0
GRID*               2736               0-7.197570261E+003.1347384219E+00+
*       1.4967754911E+00               0
GRID*               2737               0-3.868171456E+00-1.843544391E+01+
*       4.9223555265E+01               0
GRID*               2738               02.2607879390E+011.3713901803E+00+
*       1.5515934465E+01               0
GRID*               2739               0-7.789507264E+001.3909856539E+00+
*       5.4150680146E+00               0
GRID*               2740               0-1.487409772E+011.3470086941E+01+
*       7.4058973981E+00               0
GRID*               2741               0-5.092032151E+001.3267226934E+01+
*       5.6334289462E+01               0
GRID*               2742               08.3934804874E+001.2836736241E+01+
*       2.0951533710E+01               0
GRID*               2743               02.0755968718E+001.6004258051E+00+
*       4.0447467843E+01               0
GRID*               2744               07.0384446026E+001.4765647269E+00+
*       4.1966729059E+01               0
GRID*               2745               0-9.803831252E-02-1.863307242E+01+
*       5.6651500724E+01               0
GRID*               2746               0-2.148584001E+011.3189447346E+01+
*       1.9086010910E+01               0
GRID*               2747               0-2.084808438E+011.3609265053E+01+
*       2.1158644987E+01               0
GRID*               2748               0-2.605756459E+002.0419476986E+00+
*       1.5234553555E+01               0
GRID*               2749               0-1.963451507E+011.3604671279E+01+
*       1.9096064391E+01               0
GRID*               2750               02.3457286723E+018.3632772187E+00+
*       2.0423976237E+01               0
GRID*               2751               0-4.168979491E-011.3322972285E+01+
*       4.3531288950E+01               0
GRID*               2752               0-3.239308011E+001.2475046153E+01+
*       4.5892784220E+01               0
GRID*               2753               0-2.919547481E+001.3145543989E+01+
*       4.7957140361E+01               0
GRID*               2754               0-8.374860260E+001.3258262473E+01+
*       2.8614594260E+01               0
GRID*               2755               0-1.016187114E+011.3255656157E+01+
*       2.8284031322E+01               0
GRID*               2756               0-9.581071875E+001.3037817064E+01+
*       2.6866086756E+01               0
GRID*               2757               02.1372858908E+013.4788120783E+00+
*       5.4335057842E+00               0
GRID*               2758               04.2163984099E+001.8818473070E+00+
*       1.1996675512E+01               0
GRID*               2759               04.8942407303E+001.9210823014E+00+
*       1.4514191997E+01               0
GRID*               2760               0-7.263690262E+002.3691373974E+00+
*       4.6861531965E+01               0
GRID*               2761               01.7521004568E+011.1687145387E+01+
*       2.0357381715E+01               0
GRID*               2762               02.0057889422E+011.6587358916E+00+
*       3.2528325334E+01               0
GRID*               2763               01.9546871057E+013.5023967021E+00+
*       1.6709299789E+01               0
GRID*               2764               02.0468766911E+011.4989388918E+00+
*       1.0649223543E+01               0
GRID*               2765               02.2050807389E+011.6176050003E+00+
*       1.1907604841E+01               0
GRID*               2766               0-3.379691411E+001.8346720532E+00+
*       7.3948802794E+00               0
GRID*               2767               0-3.850478469E+001.2495991391E+00+
*       5.3100035013E+00               0
GRID*               2768               0-7.345226723E+002.3140409546E+00+
*       7.8450043957E+00               0
GRID*               2769               0-5.924983554E+001.7106960527E+00+
*       5.3830121434E+00               0
GRID*               2770               02.4445717259E+011.1953528313E+01+
*       1.6316274583E+01               0
GRID*               2771               02.3269121767E+011.1536729429E+01+
*       1.8326621806E+01               0
GRID*               2772               0-9.978744698E+001.7860245844E+00+
*       2.4881769429E+01               0
GRID*               2773               01.5221192984E+011.1507275923E+01+
*       1.3399825555E+00               0
GRID*               2774               0-8.961339496E+001.9213567831E+00+
*       2.3109807018E+01               0
GRID*               2775               01.7161527296E+018.4782539731E+00+
*       4.5644786638E+01               0
GRID*               2776               01.8333290524E+011.3325671008E+01+
*       3.6673173805E+01               0
GRID*               2777               02.0032630889E+011.1672076676E+01+
*       3.5145178022E+00               0
GRID*               2778               01.8986529490E+011.3635994650E+01+
*       3.0158273915E+00               0
GRID*               2779               01.2368590931E+011.3556007044E+01+
*       3.4458623257E+01               0
GRID*               2780               0-1.391645741E+011.3150301475E+00+
*       2.3792898859E+01               0
GRID*               2781               0-1.682830916E+011.0007006876E+01+
*       4.6038838781E+01               0
GRID*               2782               0-1.091788722E+011.3541630010E+01+
*       5.3335826672E+01               0
GRID*               2783               01.8059811785E+011.3510874629E+01+
*       1.6654814577E+00               0
GRID*               2784               01.6572710989E+011.2254379570E+01+
*       1.8355838177E+01               0
GRID*               2785               01.8776843755E+013.6893626551E+00+
*       1.1833225028E+00               0
GRID*               2786               06.8766347889E+001.9092320235E+00+
*       1.4438500454E+01               0
GRID*               2787               0-1.239047829E+001.3559032830E+01+
*       3.6587177008E+00               0
GRID*               2788               01.5073726680E+011.3417848459E+01+
*       3.4165219151E+00               0
GRID*               2789               0-5.163304513E+001.3432510918E+01+
*       3.5858056800E+00               0
GRID*               2790               0-5.144195605E+001.0191007085E+01+
*       1.3676053423E+00               0
GRID*               2791               0-1.623538727E+013.7066629450E+00+
*       5.2945510521E+00               0
GRID*               2792               08.8203825106E+001.3689114514E+01+
*       3.6698020360E+01               0
GRID*               2793               0-4.517257879E+008.2029929156E+00+
*       1.1661767583E+00               0
GRID*               2794               01.7917114313E+011.6860421099E+00+
*       3.0364843514E+01               0
GRID*               2795               01.7664326887E+012.1982110043E+00+
*       3.2898132445E+01               0
GRID*               2796               06.6674569479E+001.3576591907E+01+
*       3.6862627020E+01               0
GRID*               2797               0-6.330927255E+008.2550904216E+00+
*       1.1862086950E+00               0
GRID*               2798               0-7.444447771E+007.1882569471E+00+
*       1.3956057442E+00               0
GRID*               2799               02.4492507867E+011.3374546494E+01+
*       1.4499953643E+01               0
GRID*               2800               0-1.504417650E+013.0493206803E+00+
*       5.2754656401E+01               0
GRID*               2801               01.3733242294E+012.0211196298E+00+
*       5.5502509301E+01               0
GRID*               2802               07.8095556932E+001.5117242004E+00+
*       5.9841327092E+01               0
GRID*               2803               01.2132666225E+011.5289020151E+00+
*       2.5995775556E+01               0
GRID*               2804               0-1.799984056E+011.3574078758E+01+
*       1.3893429364E+00               0
GRID*               2805               07.9010729957E+001.3556188925E+01+
*       2.9753450221E+01               0
GRID*               2806               07.2858500306E+001.3076022098E+01+
*       2.7915164591E+01               0
GRID*               2807               01.9774770395E+015.3390969949E+00+
*       3.3896260584E+01               0
GRID*               2808               01.2545341578E+011.3841517250E+00+
*       4.6968877496E+01               0
GRID*               2809               07.9843357735E+001.1171891361E+01+
*       6.1575657450E+01               0
GRID*               2810               01.4265798014E+011.1871010138E+00+
*       5.0835166147E+01               0
GRID*               2811               01.2324520503E+013.7175853812E+00+
*       5.6970942025E+01               0
GRID*               2812               0-1.634129463E+015.0722066272E+00+
*       1.3858771328E+00               0
GRID*               2813               06.6689385153E+001.2721330867E+01+
*       6.2324017140E+01               0
GRID*               2814               04.5066140870E+001.3006378956E+01+
*       4.4701621286E+01               0
GRID*               2815               02.3233628977E+001.3205450509E+01+
*       4.3397723314E+01               0
GRID*               2816               02.1061137854E+011.0582905894E+01+
*       2.7381979355E+01               0
GRID*               2817               02.4557744278E+013.0039791014E+00+
*       1.5905031749E+01               0
GRID*               2818               02.4291111217E+011.3524258135E+00+
*       1.6972237468E+01               0
GRID*               2819               02.3687526933E+012.8790009698E+00+
*       1.7566349190E+01               0
GRID*               2820               02.2069436942E+011.2314033007E+01+
*       2.6547539960E+01               0
GRID*               2821               0-2.391564543E+017.1750773776E+00+
*       1.7763515013E+01               0
GRID*               2822               01.6453479869E+012.0782925374E+00+
*       1.6263183623E+01               0
GRID*               2823               0-2.118214953E+015.1230155548E+00+
*       2.9596068540E+01               0
GRID*               2824               0-2.463445054E+011.4032173846E+00+
*       1.5197175396E+01               0
GRID*               2825               0-2.390498955E+011.5349792257E+00+
*       1.3421314820E+01               0
GRID*               2826               0-2.387159754E+001.3265776494E+01+
*       3.9701187225E+01               0
GRID*               2827               0-1.380705792E+001.2559564872E+01+
*       3.7901541721E+01               0
GRID*               2828               0-1.218462301E+011.5813262019E+00+
*       1.3544361659E+00               0
GRID*               2829               0-2.180370988E+014.8127553673E+00+
*       2.7465220493E+01               0
GRID*               2830               0-1.499669976E+011.3533759072E+01+
*       2.6786438738E+01               0
GRID*               2831               0-1.418277740E+011.3635652797E+01+
*       2.8383356439E+01               0
GRID*               2832               0-1.283802356E+011.2969268133E+01+
*       2.6792631655E+01               0
GRID*               2833               0-1.827863105E+013.1744727370E+00+
*       3.9540079787E+01               0
GRID*               2834               0-1.419417410E+012.0881046275E+00+
*       3.2759724006E+00               0
GRID*               2835               0-1.684764959E+011.4254488434E+00+
*       3.3931715516E+00               0
GRID*               2836               02.0545674403E+013.0048082792E+00+
*       3.1089259513E+01               0
GRID*               2837               0-2.623505303E+00-1.200412472E+01+
*       5.6041549002E+01               0
GRID*               2838               0-1.616185685E+011.2366326383E+00+
*       4.4097630288E+01               0
GRID*               2839               01.5616104304E+011.5362606523E+00+
*       3.3274439445E+01               0
GRID*               2840               0-1.524165170E+011.4990054438E+00+
*       4.5887648937E+01               0
GRID*               2841               0-2.441465121E+019.7747307282E+00+
*       1.7114402673E+01               0
GRID*               2842               02.0996411439E+014.7301842070E+00+
*       3.0217618984E+01               0
GRID*               2843               02.0357707999E+015.1576138099E+00+
*       3.2132979053E+01               0
GRID*               2844               02.0231410812E+016.9768247976E+00+
*       3.3308586141E+01               0
GRID*               2845               01.3199938816E+001.3858776822E+01+
*       3.6352028262E+01               0
GRID*               2846               01.2869316635E+011.3678198245E+01+
*       3.4809483066E+00               0
GRID*               2847               0-2.260622086E+001.2901633573E+01+
*       2.9301129650E+01               0
GRID*               2848               01.9599864840E+013.6275674370E+00+
*       3.3706014877E+01               0
GRID*               2849               0-7.931053616E+001.2252755870E+01+
*       4.7671741682E+01               0
GRID*               2850               09.2461517146E-011.4104838935E+00+
*       7.6427844451E+00               0
GRID*               2851               07.8223329178E+002.1806155791E+00+
*       1.1880666603E+01               0
GRID*               2852               0-4.492847649E+001.3058830739E+01+
*       4.9952865005E+01               0
GRID*               2853               0-2.503691701E+011.5619197550E+00+
*       9.1476010281E+00               0
GRID*               2854               0-1.966822399E+011.5880445981E+00+
*       1.3579035284E+01               0
GRID*               2855               0-6.500187030E+001.3353834971E+01+
*       5.0551476207E+01               0
GRID*               2856               0-1.655374789E+011.3442829346E+01+
*       1.6818366302E+01               0
GRID*               2857               0-2.530908324E+012.8590266639E+00+
*       1.2467678989E+01               0
GRID*               2858               0-1.140567465E+011.3546341044E+01+
*       5.5637642807E+01               0
GRID*               2859               0-2.212886085E+018.7290466135E+00+
*       2.5208324596E+01               0
GRID*               2860               0-1.707620042E-011.3780186659E+01+
*       5.9865594897E+01               0
GRID*               2861               0-1.453151557E+015.6473997575E+00+
*       5.3763114966E+01               0
GRID*               2862               04.1274567602E+00-1.028055548E+01+
*       5.1976097700E+01               0
GRID*               2863               02.0046902010E+019.5175486413E+00+
*       3.4236582183E+01               0
GRID*               2864               01.9648533832E+017.1172816965E+00+
*       3.5006292588E+01               0
GRID*               2865               01.7325980307E+011.3288871437E+01+
*       3.4636312328E+01               0
GRID*               2866               02.0544682596E+011.3270997185E+01+
*       3.0486463290E+01               0
GRID*               2867               0-1.720901386E+013.3011499370E+00+
*       1.3313893618E+00               0
GRID*               2868               0-1.677853123E+011.3353098961E+01+
*       3.8567994559E+01               0
GRID*               2869               0-5.956776563E+001.9603818654E+00+
*       5.6680269563E+01               0
GRID*               2870               0-1.694747642E+011.5965412016E+00+
*       1.1295475280E+01               0
GRID*               2871               01.5122531425E+013.8488081772E+00+
*       3.5671156452E+00               0
GRID*               2872               01.3195733253E+011.7463675634E+00+
*       4.0192307790E+00               0
GRID*               2873               01.5312936248E+011.6916359208E+00+
*       4.0055399594E+00               0
GRID*               2874               01.1315426421E+011.4193877566E+00+
*       7.5608843584E+00               0
GRID*               2875               0-2.053180910E+011.3685966504E+01+
*       1.8076672279E+00               0
GRID*               2876               0-1.257696436E+012.1565402396E+00+
*       3.3444158055E+01               0
GRID*               2877               08.5295732774E+009.6586017168E+00+
*       1.4303433402E+00               0
GRID*               2878               02.5005501677E+002.2844423909E+00+
*       6.8775267970E+00               0
GRID*               2879               0-2.161244166E+012.1772926603E+00+
*       2.7734975421E+01               0
GRID*               2880               0-3.002650454E+001.4065261974E+00+
*       2.6862891484E+01               0
GRID*               2881               0-1.333726245E+011.3772367902E+01+
*       9.3185879810E+00               0
GRID*               2882               0-3.135704996E+002.1429936854E+00+
*       2.3370915709E+01               0
GRID*               2883               0-1.829844886E+019.6430195006E+00+
*       4.0213346349E+01               0
GRID*               2884               0-1.631942529E+002.2400734811E+00+
*       3.3501737296E+01               0
GRID*               2885               07.5159930970E-021.8194397794E+00+
*       3.2345898355E+01               0
GRID*               2886               0-1.034389503E+012.3362666763E+00+
*       3.0222768624E+01               0
GRID*               2887               0-9.929623403E+001.5873311502E+00+
*       2.8444332982E+01               0
GRID*               2888               0-1.941574534E+019.4348580498E+00+
*       3.6543652625E+01               0
GRID*               2889               0-1.941571661E+016.3224609389E+00+
*       1.3842156392E+00               0
GRID*               2890               07.8689832454E+001.2823348985E+01+
*       3.9058732136E+01               0
GRID*               2891               02.1505915130E+001.2454255123E+01+
*       1.5734786071E+01               0
GRID*               2892               03.4698965087E+001.2427996262E+01+
*       1.7676433251E+01               0
GRID*               2893               01.2611761646E+001.2838547068E+01+
*       1.7146292886E+01               0
GRID*               2894               0-2.966691317E+001.2957220200E+01+
*       2.0299680270E+01               0
GRID*               2895               0-4.197223147E+001.3132858582E+01+
*       2.2414587638E+01               0
GRID*               2896               0-1.965204534E+011.2049768219E+01+
*       3.5767860834E+01               0
GRID*               2897               0-1.238841520E+011.6130109870E+00+
*       1.8365024646E+01               0
GRID*               2898               0-1.325338481E+011.6343887119E+00+
*       3.5237914642E+01               0
GRID*               2899               0-7.963817654E+002.2901503513E+00+
*       1.6797086222E+01               0
GRID*               2900               09.1695549229E+001.2881361053E+01+
*       3.1279486840E+01               0
GRID*               2901               05.8476056290E+001.3254444501E+01+
*       2.9888265193E+01               0
GRID*               2902               03.5800251308E+001.5114028302E+00+
*       4.0563539725E+01               0
GRID*               2903               0-3.280508269E+001.9176216782E+00+
*       2.0207451626E+01               0
GRID*               2904               0-1.547623984E+013.5640737698E+00+
*       4.9560250523E+01               0
GRID*               2905               0-1.448144339E+012.1192847016E+00+
*       5.0702656440E+01               0
GRID*               2906               02.0670626121E+013.4097354188E+00+
*       1.2651990136E+00               0
GRID*               2907               0-6.303938615E+001.4466268195E+00+
*       1.8135120421E+01               0
GRID*               2908               0-7.269831907E+001.7346360889E+00+
*       1.9409827357E+01               0
GRID*               2909               0-1.149549590E+001.0181795203E+01+
*       1.5586333446E+00               0
GRID*               2910               0-9.093107980E+001.2705593878E+01+
*       8.4386306522E+00               0
GRID*               2911               0-1.182139317E+011.3638659389E+01+
*       8.0324178149E+00               0
GRID*               2912               0-2.772122242E+001.3018861692E+01+
*       9.6347345299E+00               0
GRID*               2913               0-1.409474946E+012.0240707101E+00+
*       1.6549603227E+01               0
GRID*               2914               0-1.443866253E+001.9617902053E+00+
*       1.9666250622E+01               0
GRID*               2915               03.8772578003E+001.0963629612E+01+
*       4.5561194495E+01               0
GRID*               2916               01.0328985111E+011.6220368456E+00+
*       2.8556792553E+01               0
GRID*               2917               09.5333064356E+002.2879638828E+00+
*       3.0694410494E+01               0
GRID*               2918               02.2039428138E+013.1561469951E+00+
*       2.4088125071E+01               0
GRID*               2919               02.2991766216E+015.0377353338E+00+
*       2.2661350663E+01               0
GRID*               2920               01.0175342631E+011.3675369784E+01+
*       3.0124027654E+01               0
GRID*               2921               01.6233219233E-021.4790191992E+00+
*       4.0651042378E+01               0
GRID*               2922               01.4788606949E+011.3453653067E+01+
*       4.7792773213E+01               0
GRID*               2923               0-8.894026362E+001.3398262200E+01+
*       4.8903106063E+01               0
GRID*               2924               0-2.735582035E+001.3308087934E+01+
*       2.5502663237E+01               0
GRID*               2925               0-1.479314431E+011.3625338860E+01+
*       1.7140742469E+01               0
GRID*               2926               0-1.150317271E+011.4328193222E+00+
*       5.7077089966E+01               0
GRID*               2927               0-1.307691538E+011.7643316685E+00+
*       3.0433188395E+01               0
GRID*               2928               09.0426439940E+003.5866841440E+00+
*       6.1145098154E+01               0
GRID*               2929               01.3531475727E+012.0144590878E+00+
*       2.2684487577E+01               0
GRID*               2930               09.3296275020E+001.6111066153E+00+
*       5.7723339667E+01               0
GRID*               2931               08.9860050410E+002.3961329938E+00+
*       2.2520759542E+01               0
GRID*               2932               0-8.205735363E+002.1232082919E+00+
*       4.8951925820E+01               0
GRID*               2933               02.4736569203E+011.7016515348E+00+
*       1.5017845462E+01               0
GRID*               2934               0-1.895118337E+011.5506956711E+00+
*       3.3852643791E+00               0
GRID*               2935               0-2.553769589E+016.6807454768E+00+
*       1.0691838049E+01               0
GRID*               2936               02.1606251939E+018.3261801478E+00+
*       2.6365334708E+01               0
GRID*               2937               02.1413754353E+014.8578506750E+00+
*       1.4446081050E+00               0
GRID*               2938               02.4853955030E+016.5938277180E+00+
*       1.3650792260E+01               0
GRID*               2939               0-1.369499877E+012.0577788682E+00+
*       2.0415815299E+01               0
GRID*               2940               02.4806304966E+014.6659017129E+00+
*       1.4955251639E+01               0
GRID*               2941               06.6546031028E-011.0271216616E+01+
*       1.5551811848E+00               0
GRID*               2942               02.6337459902E+014.7075199320E+00+
*       8.4468463943E+00               0
GRID*               2943               0-6.815720735E+001.3199088706E+01+
*       5.0348983497E+00               0
GRID*               2944               0-2.604162682E+011.2855112127E+01+
*       8.7440993163E+00               0
GRID*               2945               08.5213803227E+001.2614754123E+01+
*       4.8953739792E+01               0
GRID*               2946               01.7487375683E+011.9119882970E+00+
*       1.3401100946E+01               0
GRID*               2947               0-7.686564656E+002.9281029952E+00+
*       3.6027215234E+00               0
GRID*               2948               0-2.548320629E+012.9014255585E+00+
*       1.0757127044E+01               0
GRID*               2949               0-1.299065752E+011.3060364801E+01+
*       5.3921256436E+01               0
GRID*               2950               0-2.499379053E+011.2744872245E+01+
*       4.0102191196E+00               0
GRID*               2951               02.6347319611E+011.5674859436E+00+
*       9.2745347713E+00               0
GRID*               2952               04.7997360009E+002.1585153292E+00+
*       4.4530673990E+01               0
GRID*               2953               06.9079953609E+001.6576907555E+00+
*       5.6666705469E+01               0
GRID*               2954               0-2.217849740E+011.4149964764E+00+
*       2.5022740502E+01               0
GRID*               2955               0-1.814053568E+00-1.007670961E+01+
*       5.6773021216E+01               0
GRID*               2956               02.5399310151E+011.2181158431E+00+
*       1.3181500204E+01               0
GRID*               2957               01.7594270459E+018.1158981840E+00+
*       1.3969355011E+00               0
GRID*               2958               01.5094578406E+011.5162755624E+00+
*       4.6868894697E+01               0
GRID*               2959               01.8019444225E+011.8205675200E+00+
*       1.5871722191E+01               0
GRID*               2960               04.5345262483E+00-1.021838768E+01+
*       5.5180206330E+01               0
GRID*               2961               0-5.856960383E+001.3492356675E+00+
*       2.1755847203E+00               0
GRID*               2962               0-3.961266560E+001.3852817997E+00+
*       1.9853025414E+00               0
GRID*               2963               0-1.338604928E+011.7563496633E+00+
*       5.3525682160E+01               0
GRID*               2964               0-3.712772216E-011.7823606921E+00+
*       2.1751385951E+01               0
GRID*               2965               09.1665826111E+001.3429666307E+01+
*       1.9095292150E+01               0
GRID*               2966               01.9612416323E+001.2748221272E+01+
*       2.2188235324E+01               0
GRID*               2967               0-2.141344332E+001.3030424415E+01+
*       1.6280349559E+01               0
GRID*               2968               0-2.653477216E+001.3410558047E+01+
*       2.2298909368E+01               0
GRID*               2969               0-1.673202986E+011.3010236007E+01+
*       4.6015445744E+01               0
GRID*               2970               0-1.737076548E+011.1283337999E+01+
*       4.4098566080E+01               0
GRID*               2971               0-1.355172592E+011.2610579449E+01+
*       5.5709450894E+01               0
GRID*               2972               02.3081174847E+013.5726095342E+00+
*       1.9796936142E+01               0
GRID*               2973               01.0407627739E+011.3198479593E+00+
*       5.4161159858E+01               0
GRID*               2974               01.8295524193E+011.0335371624E+01+
*       1.3734313381E+00               0
GRID*               2975               0-2.673112440E+014.9190187411E+00+
*       7.3835415989E+00               0
GRID*               2976               0-3.500153554E+001.2851669921E+01+
*       2.3925657858E+01               0
GRID*               2977               0-6.263499513E+001.3242177278E+01+
*       2.5377886561E+01               0
GRID*               2978               0-4.766657478E+001.3689317559E+01+
*       2.5302586704E+01               0
GRID*               2979               0-5.344361017E+001.3503314756E+01+
*       2.0349123965E+01               0
GRID*               2980               0-5.535840187E+001.2788434742E+01+
*       2.7186996758E+01               0
GRID*               2981               0-7.892048538E+001.2621759984E+01+
*       2.7287437957E+01               0
GRID*               2982               01.4962965197E+012.1838737333E+00+
*       9.5948024312E+00               0
GRID*               2983               0-1.490305753E+011.2564315207E+00+
*       1.4799852678E+01               0
GRID*               2984               01.0315497492E+011.4845201374E+00+
*       2.0931627791E+01               0
GRID*               2985               0-8.123902137E+001.3173557165E+01+
*       2.5205207815E+01               0
GRID*               2986               0-4.327898072E-011.3457105669E+01+
*       1.8539534037E+01               0
GRID*               2987               0-2.380450360E+001.3011663873E+01+
*       1.8591824305E+01               0
GRID*               2988               05.0107368064E-011.3123099520E+01+
*       1.5453489599E+01               0
GRID*               2989               01.6414786689E+001.3153601484E+01+
*       1.8793975293E+01               0
GRID*               2990               0-1.275143231E+011.9823224490E+00+
*       3.5295435119E+00               0
GRID*               2991               02.3112708396E+012.9258733312E+00+
*       2.2190113989E+01               0
GRID*               2992               02.3232290810E+015.1907804748E+00+
*       2.0521786174E+01               0
GRID*               2993               02.7106829866E+001.2401272032E+01+
*       3.6567965624E+01               0
GRID*               2994               03.0706337575E+001.3338996389E+01+
*       5.4284177053E+01               0
GRID*               2995               0-2.603889057E+013.4280690958E+00+
*       7.9321665586E+00               0
GRID*               2996               0-2.183955988E+011.0164149700E+01+
*       1.4047522509E+00               0
GRID*               2997               07.4126069652E+001.2954786740E+01+
*       1.9446233799E+01               0
GRID*               2998               0-2.540011795E+015.2165250941E+00+
*       1.2037746981E+01               0
GRID*               2999               01.1045379475E+012.1272161203E+00+
*       2.4999090242E+01               0
GRID*               3000               0-1.529090226E+011.2965731436E+00+
*       2.3034304410E+00               0
GRID*               3001               01.2068649638E-021.7953460970E+00+
*       2.4936488758E+01               0
GRID*               3002               0-4.456306084E-012.0939511138E+00+
*       2.8689058193E+01               0
GRID*               3003               0-2.514541914E+014.8837588203E+00+
*       1.3642297790E+01               0
GRID*               3004               01.6293942201E+011.9091537302E+00+
*       1.2396232075E+01               0
GRID*               3005               0-3.207604189E+001.3442560587E+01+
*       3.3831029834E+00               0
GRID*               3006               0-1.653642450E+003.1494514770E+00+
*       4.1225055785E+00               0
GRID*               3007               0-1.051802650E+001.8823440048E+00+
*       7.5912993875E+00               0
GRID*               3008               0-1.245720987E+003.5296303841E+00+
*       1.5043389994E+00               0
GRID*               3009               0-1.533492694E+011.3576460642E+01+
*       3.6952520509E+01               0
GRID*               3010               01.7388577353E+011.3754281764E+01+
*       1.1129705715E+01               0
GRID*               3011               0-1.153509344E+011.3163493908E+01+
*       3.0457529030E+01               0
GRID*               3012               0-1.811932411E+011.2183410802E+01+
*       4.1553844002E+01               0
GRID*               3013               0-8.186931752E+001.3282647162E+01+
*       7.3344044084E+00               0
GRID*               3014               08.7070306902E+006.9768232179E+00+
*       1.4057241085E+00               0
GRID*               3015               0-1.218697139E+011.3280478284E+01+
*       2.8447871051E+01               0
GRID*               3016               0-1.789347914E+011.4649459561E+00+
*       1.7515764456E+00               0
GRID*               3017               0-2.610455607E-011.3219487382E+01+
*       3.6196877401E+01               0
GRID*               3018               01.6228821429E+011.2779340895E+00+
*       2.1342829260E+01               0
GRID*               3019               0-1.365827529E+001.2714906668E+01+
*       2.0664720454E+01               0
GRID*               3020               0-2.527179229E+011.3332202693E+01+
*       1.1194541730E+01               0
GRID*               3021               0-2.399051020E+011.3528743444E+01+
*       9.8125019206E+00               0
GRID*               3022               0-1.386781172E+001.7050079465E+00+
*       1.1555977924E+01               0
GRID*               3023               01.9028863196E+011.3202078521E+00+
*       2.1416702875E+01               0
GRID*               3024               0-1.500624026E+001.3482293996E+01+
*       1.3998401416E+01               0
GRID*               3025               0-9.722636088E+001.3845068485E+01+
*       1.1434777105E+01               0
GRID*               3026               0-2.194729147E+011.8016272105E+00+
*       1.2305980179E+00               0
GRID*               3027               0-1.070415582E+012.2966918488E+00+
*       1.4950132616E+01               0
GRID*               3028               0-1.141407908E+011.9084301555E+00+
*       1.6742098131E+01               0
GRID*               3029               01.7834650188E+001.3500558320E+01+
*       1.3845246418E+01               0
GRID*               3030               0-1.415809470E+012.0181020214E+00+
*       1.3098343348E+01               0
GRID*               3031               0-3.880759876E+001.8802032752E+00+
*       2.4842802143E+01               0
GRID*               3032               0-7.171394305E+001.8372306589E+00+
*       2.3215782499E+01               0
GRID*               3033               0-8.570353455E+001.3570366911E+01+
*       9.8630347553E+00               0
GRID*               3034               0-6.758610085E+001.2803558888E+01+
*       9.0319619801E+00               0
GRID*               3035               06.1789511855E+001.2628124600E+01+
*       2.4557142051E+01               0
GRID*               3036               0-1.976272057E+001.3298805019E+00+
*       2.0413564771E+00               0
GRID*               3037               01.3597647692E+001.3389143145E+01+
*       2.9272824451E+01               0
GRID*               3038               02.8485428822E+001.3300093683E+01+
*       2.7484039678E+01               0
GRID*               3039               0-1.293450577E+011.2492379022E+01+
*       1.7513411829E+01               0
GRID*               3040               0-1.395052685E+011.3208330762E+01+
*       1.6197156250E+01               0
GRID*               3041               04.2225395333E+001.3239080843E+01+
*       1.0731253235E+01               0
GRID*               3042               01.0000265979E+011.2325409408E+01+
*       6.0662994830E+01               0
GRID*               3043               0-2.236580981E+011.2004704047E+01+
*       1.8208946126E+00               0
GRID*               3044               02.6557708121E+018.7003992774E+00+
*       8.5817548976E+00               0
GRID*               3045               0-1.092353202E+011.3308770441E+01+
*       4.2078651009E+01               0
GRID*               3046               05.9768161028E+001.7853576500E+00+
*       2.0552576659E+01               0
GRID*               3047               0-4.987742327E+001.5353631867E+00+
*       3.6927063051E+00               0
GRID*               3048               08.2956606804E+001.3559608779E+01+
*       4.5621857252E+01               0
GRID*               3049               0-1.121878993E+012.7263611363E+00+
*       1.3081101332E+01               0
GRID*               3050               09.5908436899E+001.1511977571E+01+
*       2.1488591044E+00               0
GRID*               3051               07.4906393358E+001.1666676085E+01+
*       1.6856251889E+00               0
GRID*               3052               08.1565438921E+001.3324208952E+01+
*       1.3278163950E+00               0
GRID*               3053               01.7152003245E+011.8484470252E+00+
*       1.0767439167E+01               0
GRID*               3054               01.0518112071E+011.4148584497E+00+
*       3.2453427772E+01               0
GRID*               3055               0-1.399880461E+001.2619960373E+01+
*       2.7467996034E+01               0
GRID*               3056               02.2104015333E+015.3058343927E+00+
*       1.9435818202E+01               0
GRID*               3057               02.3480799554E+011.2949800383E+00+
*       1.8795044891E+01               0
GRID*               3058               06.0120899099E+001.3595104821E+01+
*       4.7821455362E+00               0
GRID*               3059               04.0830370210E+001.3540369170E+01+
*       5.5005723257E+00               0
GRID*               3060               02.9026557201E+001.7068903815E+00+
*       2.3928021961E+01               0
GRID*               3061               01.7451062427E+012.3775952197E+00+
*       2.1101102541E+01               0
GRID*               3062               0-1.024584926E+011.3942860322E+00+
*       2.1665173621E+01               0
GRID*               3063               0-8.250501293E+002.0562903665E+00+
*       2.1228641910E+01               0
GRID*               3064               0-5.535557871E+001.3266589661E+01+
*       2.3665647818E+01               0
GRID*               3065               0-1.286601248E+011.2723479146E+01+
*       1.4281890631E+01               0
GRID*               3066               0-1.924465056E+011.2097112466E+01+
*       3.7578207906E+01               0
GRID*               3067               0-1.366649576E+011.4349893317E+00+
*       5.7420195708E+00               0
GRID*               3068               04.2438971607E-012.1154234409E+00+
*       3.0501212468E+01               0
GRID*               3069               0-1.756312140E+001.3068279448E+01+
*       2.4196999130E+01               0
GRID*               3070               0-3.319781255E+001.3045109095E+01+
*       2.7316611894E+01               0
GRID*               3071               09.5936216548E+001.3409392953E+01+
*       5.6303720804E+00               0
GRID*               3072               0-1.394729823E+011.3152611799E+01+
*       1.2749798318E+01               0
GRID*               3073               0-2.389553807E+011.0161230643E+01+
*       1.8367511628E+01               0
GRID*               3074               02.5770324388E+00-1.871712161E+01+
*       5.2474330525E+01               0
GRID*               3075               0-3.300162035E+001.3049707998E+01+
*       4.1094090498E+01               0
GRID*               3076               05.3006122913E+001.3993007305E+00+
*       1.9397500540E+00               0
GRID*               3077               0-1.077077974E+011.3540403226E+01+
*       6.1140555649E+00               0
GRID*               3078               0-4.638163366E-011.2814475459E+01+
*       2.9553706567E+01               0
GRID*               3079               07.5796913903E-011.3558479914E+01+
*       3.7909696395E+00               0
GRID*               3080               01.4616071573E+011.3653190879E+00+
*       6.1127009157E+00               0
GRID*               3081               02.6362735115E+001.3717330850E+01+
*       5.2400339648E+01               0
GRID*               3082               0-2.912659013E+001.4700752193E+00+
*       3.8363276543E+00               0
GRID*               3083               0-1.166987561E+011.8964307274E+00+
*       2.0402390516E+01               0
GRID*               3084               0-1.163432233E+011.4761650349E+00+
*       3.1736067035E+01               0
GRID*               3085               02.1728178931E+012.9240648740E+00+
*       2.6788322980E+01               0
GRID*               3086               0-9.405961378E+002.2061611798E+00+
*       3.2354281964E+01               0
GRID*               3087               0-2.170907977E+011.3249723095E+01+
*       2.2784681558E+01               0
GRID*               3088               02.2257420287E+001.3520866893E+01+
*       3.0851944905E+01               0
GRID*               3089               03.3681989141E-011.3304537167E+01+
*       2.7585661281E+01               0
GRID*               3090               01.6311220167E+001.3201068681E+01+
*       2.5663702458E+01               0
GRID*               3091               02.3370949892E+011.9135278928E+00+
*       2.0847026730E+01               0
GRID*               3092               0-7.691139312E+001.3396267360E+01+
*       2.0205828061E+01               0
GRID*               3093               0-6.390688998E+001.3471887332E+01+
*       2.2027346988E+01               0
GRID*               3094               0-3.744473067E+001.3422370710E+00+
*       2.1683894537E+01               0
GRID*               3095               06.4642174249E+001.3055280662E+01+
*       4.6703931339E+01               0
GRID*               3096               0-5.901952475E+001.5079617574E+00+
*       2.4963092525E+01               0
GRID*               3097               01.0058563560E+011.7069602734E+00+
*       5.9406552014E+01               0
GRID*               3098               0-5.352050750E+001.2795648038E+01+
*       4.3325945040E+01               0
GRID*               3099               0-1.281270488E+011.6331735019E+00+
*       1.4803762515E+01               0
GRID*               5899               07.5000000000E+00-1.800000000E+01+
*       5.1820022583E+01               0
GRID*               5900               07.5000000000E+00-1.600000000E+01+
*       5.1820022583E+01               0
GRID*               5901               07.5000000000E+00-1.400000000E+01+
*       5.1820022583E+01               0
GRID*               5902               07.5000000000E+00-1.200000000E+01+
*       5.1820022583E+01               0
GRID*               5903               07.5000000000E+00-1.000000000E+01+
*       5.1820022583E+01               0
GRID*               5904               07.5000000000E+00-8.000000000E+00+
*       5.1820022583E+01               0
GRID*               5905               07.5000000000E+00-6.000000000E+00+
*       5.1820022583E+01               0
GRID*               5906               07.5000000000E+00-4.000000000E+00+
*       5.1820022583E+01               0
GRID*               5907               07.5000000000E+00-2.000000000E+00+
*       5.1820022583E+01               0
$*
$* ELEMENT CARDS
$*
$*  NX Mesh Collector: Solid(1)
$*  NX Mesh: 3d_mesh(1)
CTETRA         1       1       1       2       3       4
CTETRA         2       1       1       2       4       5
CTETRA         3       1       1       6       2       5
CTETRA         4       1       1       7       8       9
CTETRA         5       1      10      11      12      13
CTETRA         6       1      14      10      15      16
CTETRA         7       1      10      17      14      11
CTETRA         8       1      18      16      19      10
CTETRA         9       1      20      21      22      23
CTETRA        10       1      10      16      19      24
CTETRA        11       1      25      18      19      10
CTETRA        12       1      26      25      18      19
CTETRA        13       1      10      14      17      16
CTETRA        14       1      27      28      29      30
CTETRA        15       1      29      31      32      27
CTETRA        16       1      33      34      35      36
CTETRA        17       1      27      37      29      28
CTETRA        18       1      27      31      32      38
CTETRA        19       1      27      38      32      39
CTETRA        20       1      27      40      31      41
CTETRA        21       1      27      41      31      38
CTETRA        22       1      42      43      44      45
CTETRA        23       1      43      46      47      48
CTETRA        24       1      43      49      50      44
CTETRA        25       1      49      43      45      44
CTETRA        26       1      43      51      52      44
CTETRA        27       1      43      44      53      51
CTETRA        28       1      53      43      50      44
CTETRA        29       1      54      55      56      57
CTETRA        30       1      54      58      56      59
CTETRA        31       1      60      61      62      63
CTETRA        32       1      61      64      60      65
CTETRA        33       1      66      67      68      69
CTETRA        34       1      70      64      71      34
CTETRA        35       1      64      60      71      33
CTETRA        36       1      72      64      71      70
CTETRA        37       1      70      73      72      64
CTETRA        38       1      74      75      76      77
CTETRA        39       1      74      75      78      79
CTETRA        40       1      74      80      81      82
CTETRA        41       1      83      84      85      86
CTETRA        42       1      80      81      87      74
CTETRA        43       1      74      88      77      87
CTETRA        44       1      77      74      75      78
CTETRA        45       1      89      90      91      92
CTETRA        46       1      93      92      89      94
CTETRA        47       1      94      95      93      92
CTETRA        48       1      89      96      94      91
CTETRA        49       1      89      90      97      91
CTETRA        50       1      89      93      94      98
CTETRA        51       1      99     100     101     102
CTETRA        52       1     103    3631     104     105
CTETRA        53       1      99     106     107     100
CTETRA        54       1      99     108     106     102
CTETRA        55       1      99     108     102     109
CTETRA        56       1     110     111     112     113
CTETRA        57       1     110     114     115     112
CTETRA        58       1     110     116     111     113
CTETRA        59       1     110     117     118     119
CTETRA        60       1     120     121     122     110
CTETRA        61       1     120     123     124     110
CTETRA        62       1     110     123     124     118
CTETRA        63       1     110     122     117     115
CTETRA        64       1     110     115     117     125
CTETRA        65       1     126       8     127       9
CTETRA        66       1       2     128     129       3
CTETRA        67       1     129     130     131       2
CTETRA        68       1     132     129     130     131
CTETRA        69       1       2       6     133       5
CTETRA        70       1       2       6     130     134
CTETRA        71       1       2     135     133     134
CTETRA        72       1       2     135       4     133
CTETRA        73       1     136     137     138     139
CTETRA        74       1    4416    4415     140     141
CTETRA        75       1     137     142     138     143
CTETRA        76       1     137     144     145     139
CTETRA        77       1     137     146     147     148
CTETRA        78       1     137     148     143     138
CTETRA        79       1     137     148     145     144
CTETRA        80       1     137     146     144     149
CTETRA        81       1     150     151     152     153
CTETRA        82       1     154     155     156     157
CTETRA        83       1     155     156     157     150
CTETRA        84       1     150     151     153     158
CTETRA        85       1     159     150     160     158
CTETRA        86       1     150     155     161     157
CTETRA        87       1     159     157     150     161
CTETRA        88       1     162     157     150     159
CTETRA        89       1     163    3347    3346    3349
CTETRA        90       1     164     165     166     167
CTETRA        91       1     168     169     170     165
CTETRA        92       1     165     168     169     171
CTETRA        93       1     165     172     167     173
CTETRA        94       1     174     175     176     177
CTETRA        95       1       7     178     179     180
CTETRA        96       1     178     181       4       3
CTETRA        97       1     182     183     184     178
CTETRA        98       1     183     180     178     182
CTETRA        99       1     178     179     184     185
CTETRA       100       1     186    3207     187     188
CTETRA       101       1     178     183     184     179
CTETRA       102       1     178     181     184     182
CTETRA       103       1     189     190     191     192
CTETRA       104       1     192     190     191     193
CTETRA       105       1     190     194     191     195
CTETRA       106       1     190     196     197     198
CTETRA       107       1     190     199     193     192
CTETRA       108       1     190     194     195     200
CTETRA       109       1     201     202      16      14
CTETRA       110       1     203     204     205     206
CTETRA       111       1     207      11      18      13
CTETRA       112       1      10      15     208      12
CTETRA       113       1     202      14     209      15
CTETRA       114       1      14     202     209     210
CTETRA       115       1      10      16      17      18
CTETRA       116       1     211    5145    5144    5148
CTETRA       117       1     209      15     212     202
CTETRA       118       1     213     214     215     216
CTETRA       119       1     217     218     219     220
CTETRA       120       1     219     217     221     218
CTETRA       121       1     217     222     223     218
CTETRA       122       1     217     224     225     220
CTETRA       123       1     226     227    3227    3232
CTETRA       124       1     217     228     229     230
CTETRA       125       1     229     231     230     232
CTETRA       126       1     222     229     218     217
CTETRA       127       1     233     234     235     236
CTETRA       128       1     237    5146    5145    5137
CTETRA       129       1     234     238     239     240
CTETRA       130       1     241     242     243     244
CTETRA       131       1     234     240     245     246
CTETRA       132       1     234     236     247     235
CTETRA       133       1     236     233     248     235
CTETRA       134       1      30    3653    3652    3657
CTETRA       135       1     234     236     233     246
CTETRA       136       1     249     250     251     252
CTETRA       137       1     253     254     255     256
CTETRA       138       1     257     258     249     251
CTETRA       139       1    5902     259    5481    5504
CTETRA       140       1     260     261     262     249
CTETRA       141       1     249     263     264     265
CTETRA       142       1     249     262     251     258
CTETRA       143       1     249     261     258     266
CTETRA       144       1       8     129     267     268
CTETRA       145       1     269     270     271     272
CTETRA       146       1       9     273       8     127
CTETRA       147       1     274     105     104     275
CTETRA       148       1      98      94     276     277
CTETRA       149       1       8     129     278     267
CTETRA       150       1       8     267     273     279
CTETRA       151       1     129     268       3     128
CTETRA       152       1       8     280     281       3
CTETRA       153       1       8     280       3     282
CTETRA       154       1       1     130       2       6
CTETRA       155       1     126       5       6       1
CTETRA       156       1     278     129     283     267
CTETRA       157       1       8     273     267     278
CTETRA       158       1       1       8       3     129
CTETRA       159       1       1       8     129     284
CTETRA       160       1       1       3       8       7
CTETRA       161       1     285     286     287     288
CTETRA       162       1     289     290     291     292
CTETRA       163       1     289     293     286     288
CTETRA       164       1     291     285     294     289
CTETRA       165       1     289     293     295     296
CTETRA       166       1     297     298     299     300
CTETRA       167       1     300     301     302     303
CTETRA       168       1     302     304     305     300
CTETRA       169       1     300     306     307     299
CTETRA       170       1     300     302     304     308
CTETRA       171       1     300     306     309     310
CTETRA       172       1     311    5544    5521     312
CTETRA       173       1     202     313      15     212
CTETRA       174       1      16      10      15      24
CTETRA       175       1      15      14     209      11
CTETRA       176       1     314     315    5591     316
CTETRA       177       1     284     317     318     319
CTETRA       178       1     320     321     322     323
CTETRA       179       1     324     325     326     317
CTETRA       180       1     317     327     284     278
CTETRA       181       1     328     317     327     329
CTETRA       182       1     319     317     318     325
CTETRA       183       1     318     330     324     283
CTETRA       184       1     331     332     333     334
CTETRA       185       1     331     335     333     336
CTETRA       186       1     331     333     335     334
CTETRA       187       1     331     337     338     339
CTETRA       188       1     331     340     336     338
CTETRA       189       1     341     342     343     344
CTETRA       190       1     345     346     344     347
CTETRA       191       1     346     344     347     341
CTETRA       192       1     346     347      48     341
CTETRA       193       1      46     346     347      48
CTETRA       194       1     341     342     344     348
CTETRA       195       1     349     348     347     344
CTETRA       196       1     350     351     352     353
CTETRA       197       1     354     355      50     356
CTETRA       198       1    5434    5707    5899    3319
CTETRA       199       1     354     356      53     357
CTETRA       200       1     354      44     357      53
CTETRA       201       1     354     358     359     360
CTETRA       202       1     354     358      44     359
CTETRA       203       1     361     362     363     364
CTETRA       204       1      46      45     346      48
CTETRA       205       1     365     366     367     368
CTETRA       206       1      46     346     345     347
CTETRA       207       1      46     369     370      47
CTETRA       208       1     371      97     372      90
CTETRA       209       1     373     168     374     375
CTETRA       210       1      90     376     377      91
CTETRA       211       1      90     378      91      92
CTETRA       212       1      90     378     379     371
CTETRA       213       1      90     380     376     381
CTETRA       214       1      90     376     378     381
CTETRA       215       1     382     383     384     385
CTETRA       216       1     137     146     149     147
CTETRA       217       1     386     149     387     147
CTETRA       218       1     388     373     389     390
CTETRA       219       1     149     387     147     146
CTETRA       220       1     146     391     392     393
CTETRA       221       1     393     394     395     387
CTETRA       222       1     387     394     395     147
CTETRA       223       1     396     397     398     399
CTETRA       224       1     399     400     401     402
CTETRA       225       1     399     401     400     403
CTETRA       226       1     404     399     405     406
CTETRA       227       1     399     405     406     407
CTETRA       228       1     399     408     404     405
CTETRA       229       1     399     398     404     408
CTETRA       230       1     409     410     411     412
CTETRA       231       1     413     414     415     416
CTETRA       232       1     415     413     417     414
CTETRA       233       1     413     418     419     414
CTETRA       234       1     413     417     419     420
CTETRA       235       1     421     422     423     274
CTETRA       236       1     421     424     425     274
CTETRA       237       1     421     423     424     274
CTETRA       238       1     421     422     274     426
CTETRA       239       1     421     263     252     250
CTETRA       240       1     421     250     252     427
CTETRA       241       1     421     428     429     274
CTETRA       242       1     421     428     425     250
CTETRA       243       1     293     295       9     289
CTETRA       244       1     127     273       8     284
CTETRA       245       1     430     431    5396     432
CTETRA       246       1     284       8     127     126
CTETRA       247       1       9     433       7     281
CTETRA       248       1       9     293     127     126
CTETRA       249       1     434     435     436     437
CTETRA       250       1     434     404     438     439
CTETRA       251       1     440    5082    5081    5098
CTETRA       252       1     434     437     438     441
CTETRA       253       1     434     404     439     396
CTETRA       254       1     434     436     167     396
CTETRA       255       1     442     443     444    3629
CTETRA       256       1     445     446     447     448
CTETRA       257       1     448     449     450     445
CTETRA       258       1     451     448     449     450
CTETRA       259       1     144     452     139     137
CTETRA       260       1     138     136     453     454
CTETRA       261       1     136     455     456     454
CTETRA       262       1     136     454     457     455
CTETRA       263       1     136     458     459     460
CTETRA       264       1     137     136     461     149
CTETRA       265       1     462     386     461     136
CTETRA       266       1     137     136     454     461
CTETRA       267       1     373    5053    5077    5052
CTETRA       268       1     457     461     463     454
CTETRA       269       1     464     465     466     467
CTETRA       270       1      49     464     465     466
CTETRA       271       1     467     468     469     470
CTETRA       272       1     467     466     468     470
CTETRA       273       1     467     471     465     470
CTETRA       274       1     470     472     473     471
CTETRA       275       1     468     469     474     467
CTETRA       276       1     417     468     469     474
CTETRA       277       1     475     476     477     478
CTETRA       278       1     467     468     464     474
CTETRA       279       1     479     480     481     482
CTETRA       280       1     483     484    3898     485
CTETRA       281       1     479     486     487     488
CTETRA       282       1     489     482     480     479
CTETRA       283       1     490     491     492     493
CTETRA       284       1     494     495    3903     361
CTETRA       285       1     496     497     498     486
CTETRA       286       1     499     500    5574    5551
CTETRA       287       1     501     502     460     452
CTETRA       288       1     375    5086     374    5085
CTETRA       289       1     390     389    5095    5052
CTETRA       290       1     503    5016    4883    5015
CTETRA       291       1     489     486     504     479
CTETRA       292       1      75      79     505     506
CTETRA       293       1      75      77      78     507
CTETRA       294       1      75     508     509     510
CTETRA       295       1      75     507      78     509
CTETRA       296       1      75     511      77     507
CTETRA       297       1      75     511     512      76
CTETRA       298       1     513     514     515     516
CTETRA       299       1     513    4357     517     518
CTETRA       300       1    4357     519     520     513
CTETRA       301       1     513     517    4357     519
CTETRA       302       1     513      67     329     518
CTETRA       303       1     513     514     521     515
CTETRA       304       1     513      69     521     329
CTETRA       305       1     522     523    3435    3925
CTETRA       306       1     524     525     526     527
CTETRA       307       1     126     528     529     293
CTETRA       308       1     530     528     529     126
CTETRA       309       1     531     126     284     530
CTETRA       310       1     126     284     530     127
CTETRA       311       1     374    5053    5087    5054
CTETRA       312       1       1     284     130     126
CTETRA       313       1     532    3957    3956    3955
CTETRA       314       1       1     130       6     126
CTETRA       315       1     533    5099     534    5083
CTETRA       316       1       9     127     292     273
CTETRA       317       1     535     536     168     537
CTETRA       318       1     127     538     539     273
CTETRA       319       1     127     540     539     538
CTETRA       320       1       9     292     127     293
CTETRA       321       1     378     379     371     541
CTETRA       322       1     378     541     381     409
CTETRA       323       1     378     541     409     108
CTETRA       324       1     378      92     106     542
CTETRA       325       1     543     544    3944    3943
CTETRA       326       1     378      92     542     545
CTETRA       327       1     378     106     379     108
CTETRA       328       1      60     546     547      33
CTETRA       329       1      33     546     547     548
CTETRA       330       1      65      61      62      60
CTETRA       331       1      60      64      71      72
CTETRA       332       1      73      62     549      60
CTETRA       333       1     550     205     551     552
CTETRA       334       1      60     553      73      72
CTETRA       335       1     553      73     549      60
CTETRA       336       1     554     555     556      53
CTETRA       337       1      27      29     557      30
CTETRA       338       1      27      41     558      40
CTETRA       339       1      38     559     560      31
CTETRA       340       1     561      38     559     560
CTETRA       341       1      31      38      41     560
CTETRA       342       1     562    4826     563    5399
CTETRA       343       1      31     560     564     557
CTETRA       344       1      31     565     559     557
CTETRA       345       1     566    4744    4745    4738
CTETRA       346       1     567     568     569     570
CTETRA       347       1     571     572     573     574
CTETRA       348       1     575     576     577     578
CTETRA       349       1     579     580     581     568
CTETRA       350       1    5678     582    5679    3300
CTETRA       351       1     568     579     580     569
CTETRA       352       1     583     579     580     581
CTETRA       353       1     568     581     571     572
CTETRA       354       1     521     584     585     586
CTETRA       355       1     513     329     521     514
CTETRA       356       1     514     521     540     329
CTETRA       357       1     587    4469    4470    4683
CTETRA       358       1     329     521     540     538
CTETRA       359       1     588     589     590     591
CTETRA       360       1     592     561     593     594
CTETRA       361       1     595    3628    3602    3601
CTETRA       362       1     596    5548     597     598
CTETRA       363       1     599     600     601     602
CTETRA       364       1     599     603     604     189
CTETRA       365       1     599     604     605     189
CTETRA       366       1     599     602     605     606
CTETRA       367       1     607     600     608     609
CTETRA       368       1     607     610     611     612
CTETRA       369       1     607     608     613     614
CTETRA       370       1     615    5472     616     552
CTETRA       371       1     261     266     260     617
CTETRA       372       1     618     619     620     566
CTETRA       373       1     621     622    3413    3356
CTETRA       374       1     261     201     617     623
CTETRA       375       1     261     201     623     624
CTETRA       376       1     261     201     625     266
CTETRA       377       1     626     627    5060    5073
CTETRA       378       1     628     629     630     631
CTETRA       379       1     632     424     425     633
CTETRA       380       1     634     635     631     636
CTETRA       381       1     628     636     637     634
CTETRA       382       1     628     637     638     639
CTETRA       383       1     628     638     636     640
CTETRA       384       1     631     636     628     634
CTETRA       385       1     641     642     643     644
CTETRA       386       1     645    3127    3122    3119
CTETRA       387       1     641     644     646     647
CTETRA       388       1     641     643     642     648
CTETRA       389       1     641     212     643     649
CTETRA       390       1     641     643     648     649
CTETRA       391       1     650     651     423     652
CTETRA       392       1     653     654     209     655
CTETRA       393       1       6     130     134     656
CTETRA       394       1     291     433     289     292
CTETRA       395       1     657       5       6     126
CTETRA       396       1     129     131     128       2
CTETRA       397       1     627    5054    5055    5060
CTETRA       398       1       2       5     133       4
CTETRA       399       1     165     167     535     166
CTETRA       400       1     172     165     388     170
CTETRA       401       1     165     169     170     172
CTETRA       402       1     169     658     659     171
CTETRA       403       1     660     658     659     169
CTETRA       404       1     169     661     171     662
CTETRA       405       1     663     664    3402     633
CTETRA       406       1     169     665     168     375
CTETRA       407       1     169     665     375     660
CTETRA       408       1     171     169     662     659
CTETRA       409       1     650     666    3618     667
CTETRA       410       1     668     669     670     671
CTETRA       411       1     671     672     673     668
CTETRA       412       1     671     673     672     674
CTETRA       413       1     572     671     675     571
CTETRA       414       1     671     669     670     571
CTETRA       415       1     676     677     336     678
CTETRA       416       1     679     680     681     682
CTETRA       417       1     274     104     683     632
CTETRA       418       1     676     680     677     678
CTETRA       419       1     676     684     685     686
CTETRA       420       1     508     687     688     689
CTETRA       421       1     689     688     690     687
CTETRA       422       1     689     688     691     692
CTETRA       423       1     689     631     693     694
CTETRA       424       1     689     508     635     631
CTETRA       425       1     689     640     690     692
CTETRA       426       1     640     631     693     689
CTETRA       427       1     689     693     691     695
CTETRA       428       1     419     696     414     418
CTETRA       429       1     419      21     414     697
CTETRA       430       1     419     420     698     699
CTETRA       431       1     413     414     419     417
CTETRA       432       1     413     418     700     701
CTETRA       433       1     413     414     416     418
CTETRA       434       1     445     702     703     704
CTETRA       435       1     703     705     706     707
CTETRA       436       1     703     708     704     709
CTETRA       437       1     710     711     712     703
CTETRA       438       1     703     706     709     710
CTETRA       439       1     713     714     715     716
CTETRA       440       1     717      94      95     718
CTETRA       441       1      94      95     718     713
CTETRA       442       1     713      95     718     321
CTETRA       443       1     719     720     721     716
CTETRA       444       1     722     633     632    3359
CTETRA       445       1     713      94     720     718
CTETRA       446       1     723     724     725     726
CTETRA       447       1     727     728     729     724
CTETRA       448       1     722    3359     632    3360
CTETRA       449       1     724     728     730     731
CTETRA       450       1     724     730     732     723
CTETRA       451       1     558     733     734     116
CTETRA       452       1     558     113     735      40
CTETRA       453       1     736     737     456     455
CTETRA       454       1     738     456     737     739
CTETRA       455       1     740     741     742     743
CTETRA       456       1     744    4217    4218    4192
CTETRA       457       1     739     138     453     454
CTETRA       458       1     739     454     453     456
CTETRA       459       1     455     739     454     745
CTETRA       460       1     739     746     138     454
CTETRA       461       1     745     739     454     746
CTETRA       462       1     747     748     464      48
CTETRA       463       1     747     749     748     750
CTETRA       464       1     747     474     464     749
CTETRA       465       1     747     751     752     753
CTETRA       466       1     754    4191     755    4217
CTETRA       467       1     756     757     302     758
CTETRA       468       1     543    3935    3943    3936
CTETRA       469       1     759    4987     760     761
CTETRA       470       1     758     762     763     764
CTETRA       471       1     758     763      96     756
CTETRA       472       1     758     765     763     762
CTETRA       473       1     758     764     757     766
CTETRA       474       1     767     768     510     769
CTETRA       475       1     689     770     695     691
CTETRA       476       1     771     510     588     770
CTETRA       477       1     772     773     774     775
CTETRA       478       1     776    3101    3102    3131
CTETRA       479       1     767     769     510     588
CTETRA       480       1     767     691     745     770
CTETRA       481       1     777     767     691     745
CTETRA       482       1     767     588     770     745
CTETRA       483       1     767     778     777     779
CTETRA       484       1     588     778     745     767
CTETRA       485       1     734     780     781     782
CTETRA       486       1     783    5144    5146    5141
CTETRA       487       1     782     780     781     620
CTETRA       488       1     784     782     620     785
CTETRA       489       1     782     251     257     427
CTETRA       490       1     786     257     787     782
CTETRA       491       1     782     787     781     734
CTETRA       492       1     782     427     787     734
CTETRA       493       1     782     788     784     781
CTETRA       494       1     377      96     239     789
CTETRA       495       1     173     790     791     792
CTETRA       496       1     377      97     276     793
CTETRA       497       1     377      96      97      91
CTETRA       498       1     794     795     786     796
CTETRA       499       1     794     796     786     797
CTETRA       500       1     794     795     798     367
CTETRA       501       1     799     800     801     802
CTETRA       502       1     799     708     803     804
CTETRA       503       1     799     708     706     803
CTETRA       504       1     799     802     801     805
CTETRA       505       1     806     677     807     808
CTETRA       506       1     806     809     678     677
CTETRA       507       1     810     811     812     813
CTETRA       508       1     814    3236    3237    3188
CTETRA       509       1     815     816     808     680
CTETRA       510       1     817     818     264    5267
CTETRA       511       1     815     808     677     680
CTETRA       512       1     815     816     819     808
CTETRA       513       1     813     819     820     811
CTETRA       514       1     819     815     813     821
CTETRA       515       1     817     818    5267    5268
CTETRA       516       1     118      81      76     822
CTETRA       517       1     118      76     823     822
CTETRA       518       1     110     512     122     123
CTETRA       519       1     118     823     512     123
CTETRA       520       1     824     637     636     825
CTETRA       521       1     826     352     827     824
CTETRA       522       1     544    3943    3951    3944
CTETRA       523       1     824     352     827     828
CTETRA       524       1     824     829     352     830
CTETRA       525       1     824     636     638     831
CTETRA       526       1     832     486     833     834
CTETRA       527       1     832     835     834     836
CTETRA       528       1     533    5082    5083    5086
CTETRA       529       1     832     837     835     836
CTETRA       530       1     832     487     835     838
CTETRA       531       1     832     833     487     838
CTETRA       532       1     832     837     839     840
CTETRA       533       1     832     841     837     840
CTETRA       534       1     841     838     833     832
CTETRA       535       1     260     842     817    5291
CTETRA       536       1     843     844    5002     845
CTETRA       537       1     813     846     681     847
CTETRA       538       1     848    5039     849    5019
CTETRA       539       1     847     850     677     813
CTETRA       540       1     847     850     681     677
CTETRA       541       1     810     850     725     813
CTETRA       542       1     850     725     813     847
CTETRA       543       1     331     847     731     850
CTETRA       544       1     331     847     681     333
CTETRA       545       1     331     847     850     681
CTETRA       546       1     851     852     853     854
CTETRA       547       1      42     852     855     856
CTETRA       548       1      42     857      52     854
CTETRA       549       1      42     858      45     855
CTETRA       550       1      44      42     857      52
CTETRA       551       1      43      42      52     859
CTETRA       552       1     824     825     636     860
CTETRA       553       1     718     721     861     719
CTETRA       554       1     636     634     862     825
CTETRA       555       1     636     690     687     635
CTETRA       556       1     636     690     640     831
CTETRA       557       1     636     638     831     640
CTETRA       558       1     824     638     636     637
CTETRA       559       1     628     629     634     637
CTETRA       560       1     863     640     639     864
CTETRA       561       1       6     656     865     531
CTETRA       562       1       6     657     126     866
CTETRA       563       1       1       7       4       3
CTETRA       564       1     129     267     867     283
CTETRA       565       1       1       7       9       5
CTETRA       566       1       5       4     868     133
CTETRA       567       1       4     178       7     180
CTETRA       568       1       1       2     129       3
CTETRA       569       1       5     869     870     408
CTETRA       570       1       7     433     185     281
CTETRA       571       1       5     868       4     180
CTETRA       572       1     871     872     873     874
CTETRA       573       1     843    5002     844    4869
CTETRA       574       1       5       7     870     869
CTETRA       575       1     106     875     107     876
CTETRA       576       1     106      92     717     542
CTETRA       577       1     378     379     106      92
CTETRA       578       1     106     542     100     102
CTETRA       579       1      55      57     877      63
CTETRA       580       1     878      63      55      61
CTETRA       581       1     879     878      35      55
CTETRA       582       1      56      54      59     879
CTETRA       583       1      55     880      33     881
CTETRA       584       1      55      57     881      56
CTETRA       585       1      11      18      13      10
CTETRA       586       1     202     625      24     365
CTETRA       587       1      15     882     365     208
CTETRA       588       1      15     883     884      12
CTETRA       589       1      15     365      24     208
CTETRA       590       1      15     885     883     212
CTETRA       591       1     106     875     379     108
CTETRA       592       1     875     379     886     887
CTETRA       593       1     106     875     887     379
CTETRA       594       1     875     888     889     890
CTETRA       595       1     106     887     875     876
CTETRA       596       1     106     107     875     888
CTETRA       597       1     875     107     889     888
CTETRA       598       1     891     892     893     894
CTETRA       599       1     891     895     535     475
CTETRA       600       1     891     896     892     894
CTETRA       601       1     897    3953    3960    3958
CTETRA       602       1     891     895     893     892
CTETRA       603       1     891     895     475     898
CTETRA       604       1     899     898     900     901
CTETRA       605       1     475     895     901     898
CTETRA       606       1     150     151     891     152
CTETRA       607       1     891     902     537     535
CTETRA       608       1     895     892     902     166
CTETRA       609       1     895     166     535     903
CTETRA       610       1     904    5519    5543    5520
CTETRA       611       1     905     906    3964     907
CTETRA       612       1     535     536     908     909
CTETRA       613       1     901     535     903     895
CTETRA       614       1     910     877     911      61
CTETRA       615       1     912     913     914     915
CTETRA       616       1      64      60      33      63
CTETRA       617       1     916      61      65     878
CTETRA       618       1      63      64     878      33
CTETRA       619       1      61     917      63     918
CTETRA       620       1      61     382     917     918
CTETRA       621       1      61     911     382     918
CTETRA       622       1      63      64      60      61
CTETRA       623       1      61      62     917     382
CTETRA       624       1     919     920     921     922
CTETRA       625       1     923     924     925     926
CTETRA       626       1     927    3942    3934    3941
CTETRA       627       1     924     925     926     919
CTETRA       628       1     543     928     929    3936
CTETRA       629       1     430    3531    3538    5842
CTETRA       630       1     876     919     930     924
CTETRA       631       1     925     924     107     930
CTETRA       632       1     931     927     932     532
CTETRA       633       1     933     876     921     930
CTETRA       634       1     876     921     930     919
CTETRA       635       1     919     323     922     926
CTETRA       636       1     924     919     930     925
CTETRA       637       1     934     935     936     937
CTETRA       638       1     938     884     883     937
CTETRA       639       1     938     939     883     940
CTETRA       640       1     403     400     941     942
CTETRA       641       1     943    3434     523    3456
CTETRA       642       1     938     944     267     934
CTETRA       643       1     938     945     944     946
CTETRA       644       1     262     252     249     251
CTETRA       645       1     249     265     264     260
CTETRA       646       1     251     252     947     262
CTETRA       647       1     948     432     949     950
CTETRA       648       1     430     432    5396    5363
CTETRA       649       1     951     788     947     251
CTETRA       650       1     952     951     788     947
CTETRA       651       1     251     257     427     250
CTETRA       652       1     782     251     427     788
CTETRA       653       1     268     953     954     867
CTETRA       654       1     268     955     181     128
CTETRA       655       1     268     282       3     181
CTETRA       656       1     956     957     958     943
CTETRA       657       1     959     176    4659    4690
CTETRA       658       1     882     960     961     282
CTETRA       659       1     268     962     867     954
CTETRA       660       1     268     962     128     867
CTETRA       661       1     229     218     217     220
CTETRA       662       1     218     963     220     229
CTETRA       663       1     218     222     253     254
CTETRA       664       1     964     706     965     578
CTETRA       665       1     964     965     966     967
CTETRA       666       1     964     968     967     969
CTETRA       667       1     970    4743    4707    4749
CTETRA       668       1     964     971     966     706
CTETRA       669       1     699     701     972     973
CTETRA       670       1     974     975     976     977
CTETRA       671       1     975     976     977     699
CTETRA       672       1     699     978     979     698
CTETRA       673       1     699     980     418     975
CTETRA       674       1     701     418     700     977
CTETRA       675       1     418     699     701     413
CTETRA       676       1     413     699     419     418
CTETRA       677       1     981     420     698     419
CTETRA       678       1     419     699     980     418
CTETRA       679       1     413     699     701     420
CTETRA       680       1     943     982    3458     523
CTETRA       681       1     983     172     388     170
CTETRA       682       1     172     435     984     985
CTETRA       683       1     172     986     435     987
CTETRA       684       1     984     172     173     167
CTETRA       685       1     167     435     984     172
CTETRA       686       1     172     435     388     167
CTETRA       687       1       2       3       4     128
CTETRA       688       1       4     988     989     135
CTETRA       689       1       5       7     869     990
CTETRA       690       1       4     991     180     992
CTETRA       691       1       4     992     180     868
CTETRA       692       1     662     172     169     661
CTETRA       693       1     943     982    3457    3458
CTETRA       694       1     172     987     435     985
CTETRA       695       1     818     993    5280    5285
CTETRA       696       1     413     994     420     995
CTETRA       697       1     996     699     979     972
CTETRA       698       1     413     419     699     420
CTETRA       699       1     699     972     701     420
CTETRA       700       1     995     972     420     701
CTETRA       701       1     997     998     999    3691
CTETRA       702       1     399     401     407     406
CTETRA       703       1     403     401     942     407
CTETRA       704       1     402     399     397     903
CTETRA       705       1    1000     402     901    1001
CTETRA       706       1     210    1002    5300    5301
CTETRA       707       1     401     407     406    1003
CTETRA       708       1     997    3691     999    3711
CTETRA       709       1     797     784     788     781
CTETRA       710       1     401    1000     197    1001
CTETRA       711       1     903     401    1001     402
CTETRA       712       1    4741    1004     619    4731
CTETRA       713       1    3627    3628    1005    3601
CTETRA       714       1     251     252     250     427
CTETRA       715       1     782     786     781     787
CTETRA       716       1     251     788     252     427
CTETRA       717       1     257     787    1006    1007
CTETRA       718       1     257     787    1008    1006
CTETRA       719       1      62     385     304    1009
CTETRA       720       1      62     917     546      63
CTETRA       721       1      62    1009     917     382
CTETRA       722       1      60      62      65      73
CTETRA       723       1      62      65     304     385
CTETRA       724       1    3627    3600    3601    1010
CTETRA       725       1     183    1011    1012     438
CTETRA       726       1     183     990     180     438
CTETRA       727       1     183     990     179     180
CTETRA       728       1     183     565     182     184
CTETRA       729       1     179     180     178     183
CTETRA       730       1    1013     183     990     179
CTETRA       731       1    1014    1015    1016    1017
CTETRA       732       1    1018     574    1019    1020
CTETRA       733       1    1018    1021    1019     571
CTETRA       734       1    1018    1021     381    1022
CTETRA       735       1    1018     570    1023    1024
CTETRA       736       1    1025    1026    1027    3649
CTETRA       737       1    1018     569    1021     571
CTETRA       738       1    1018    1021     569    1024
CTETRA       739       1     673    1017    1028    1029
CTETRA       740       1    1005    3628    3627    3644
CTETRA       741       1     671    1030     675    1028
CTETRA       742       1     673    1017     674    1028
CTETRA       743       1     671     674    1031    1030
CTETRA       744       1     673    1017    1029    1032
CTETRA       745       1     673    1032     668    1033
CTETRA       746       1     671     673     670     668
CTETRA       747       1    1014    1016    1034    1035
CTETRA       748       1    1036    1016    1037    1038
CTETRA       749       1    1038    1034    1036    1016
CTETRA       750       1    1016    1034    1036    1039
CTETRA       751       1    1016    1038    1040    1041
CTETRA       752       1    1016    1038    1041    1037
CTETRA       753       1    1014    1035    1042     497
CTETRA       754       1     267     934     279     937
CTETRA       755       1    1043    1044    1030    1045
CTETRA       756       1     278     284     132     129
CTETRA       757       1       8     281       9       7
CTETRA       758       1       8     282     268     267
CTETRA       759       1     268     953     267     884
CTETRA       760       1       8       3     268     282
CTETRA       761       1    1046    1047    1048    1049
CTETRA       762       1    1046    1050    1051      87
CTETRA       763       1    1046    1051    1050    1052
CTETRA       764       1    1053    1054    1055    1056
CTETRA       765       1    1031    1057    1044     776
CTETRA       766       1    1046    1048    1058    1055
CTETRA       767       1    1046    1049    1048    1055
CTETRA       768       1    1059     909    1060    1061
CTETRA       769       1     475     535     909    1061
CTETRA       770       1     478     909    1060    1059
CTETRA       771       1    1062    4274    4269    5807
CTETRA       772       1     901     898     900     475
CTETRA       773       1     891     898     475     152
CTETRA       774       1     475     152     476     908
CTETRA       775       1     891     152     475     535
CTETRA       776       1    1017    1063    1028    1039
CTETRA       777       1    1064     572    1045    1065
CTETRA       778       1    1017    1066     674    1028
CTETRA       779       1    1067    1066     674    1017
CTETRA       780       1     673     670    1029    1028
CTETRA       781       1     430    5396    5842    5364
CTETRA       782       1     306     714    1068    1069
CTETRA       783       1     300     297    1070     309
CTETRA       784       1     306     714     310     303
CTETRA       785       1     306    1071    1072    1073
CTETRA       786       1    1074    4686    4655    4654
CTETRA       787       1    1065    1075    4031    4034
CTETRA       788       1     306    1073    1069    1071
CTETRA       789       1     300     302     766     303
CTETRA       790       1     306    1076     714     303
CTETRA       791       1     306     303     766    1076
CTETRA       792       1    1077    1078    1079    1080
CTETRA       793       1    1077    1081    1082    1083
CTETRA       794       1    1077    1084    1085    1086
CTETRA       795       1    1077    1081    1080    1082
CTETRA       796       1    1077    1078    1080    1086
CTETRA       797       1     311    1087    5546    1088
CTETRA       798       1    5523     311    1087    5546
CTETRA       799       1    1088     596    5569     315
CTETRA       800       1    1088    1087     596    1089
CTETRA       801       1    1088     596    5546    5569
CTETRA       802       1    1088    1090    5544     312
CTETRA       803       1     782     618    1091     780
CTETRA       804       1    1065    1045    4030    4027
CTETRA       805       1     312    1088     311    5544
CTETRA       806       1    1092    1093     362    1094
CTETRA       807       1    1094    1095    3802     790
CTETRA       808       1    1095    3903    3802    3902
CTETRA       809       1    1045    1030    4026    4027
CTETRA       810       1     441    1093     790     984
CTETRA       811       1    1043    4025    1045    4026
CTETRA       812       1     742     682     986     662
CTETRA       813       1     682     986     662     987
CTETRA       814       1     172     987    1096     662
CTETRA       815       1     435    1097     987     986
CTETRA       816       1     987    1098     985    1096
CTETRA       817       1     662     172     661    1096
CTETRA       818       1    1099    1100    1101    1102
CTETRA       819       1    1102    1103    1100    1101
CTETRA       820       1    1102    1104    1105    1103
CTETRA       821       1    1102    1106    1104    1107
CTETRA       822       1     690    1108    1109    1110
CTETRA       823       1     636     690    1111     687
CTETRA       824       1     689     690     635     687
CTETRA       825       1     690     692    1112    1108
CTETRA       826       1      39      38      32    1113
CTETRA       827       1    1114    4449    1115     915
CTETRA       828       1      31      38     559      32
CTETRA       829       1      40      31     557      27
CTETRA       830       1     320    1116    1117    1118
CTETRA       831       1     733      38     561      41
CTETRA       832       1      27      37     558      39
CTETRA       833       1      38     734    1113      39
CTETRA       834       1    1119      38     734    1113
CTETRA       835       1     733     558     734      38
CTETRA       836       1    1120    1121     462    1122
CTETRA       837       1    1069    1123    1124    1125
CTETRA       838       1    1126    1127    1121     459
CTETRA       839       1    1120    1128    1122     462
CTETRA       840       1    1120    1129    1127      85
CTETRA       841       1    1130    1131    4274    4241
CTETRA       842       1    1120    1122    1128      83
CTETRA       843       1    1132    3946    3945    3971
CTETRA       844       1     414    1133     696    1134
CTETRA       845       1     803     709    1135     804
CTETRA       846       1     709     708     804     803
CTETRA       847       1    1136    4571    4580    4572
CTETRA       848       1     703     712     709    1137
CTETRA       849       1     703    1138    1139     702
CTETRA       850       1     445     708     802     804
CTETRA       851       1    1130    4274    5808    4242
CTETRA       852       1     445     241     246     702
CTETRA       853       1     445    1140     804     447
CTETRA       854       1      62    1141     917    1142
CTETRA       855       1     917    1142    1143    1009
CTETRA       856       1      62    1142     917    1009
CTETRA       857       1      63      61      62     917
CTETRA       858       1     917     711     577    1143
CTETRA       859       1    1144      12     280     279
CTETRA       860       1    1144    1145      13    1146
CTETRA       861       1    1144    5730    1147    1148
CTETRA       862       1    1144     280    1148    1147
CTETRA       863       1     676     684     336     685
CTETRA       864       1     684    1149    1150     336
CTETRA       865       1     684     685     686     743
CTETRA       866       1     684     678    1150    1151
CTETRA       867       1     684     336    1152    1149
CTETRA       868       1     684     678    1151    1153
CTETRA       869       1     848    1153     686     684
CTETRA       870       1    1069    1073    1124     912
CTETRA       871       1     807     812    1154    1155
CTETRA       872       1    1155    1156     114     807
CTETRA       873       1    1068     912    1157    1158
CTETRA       874       1     914    1159    4169    4073
CTETRA       875       1     807     114    1160    1156
CTETRA       876       1     812     807     815     811
CTETRA       877       1     807    1156    1160    1161
CTETRA       878       1    1162    4514    4510    4511
CTETRA       879       1     121     111     110     120
CTETRA       880       1     123     122     110     120
CTETRA       881       1     110     118     124     119
CTETRA       882       1     122     770     512     117
CTETRA       883       1     122     770     117     771
CTETRA       884       1     110    1163     124     558
CTETRA       885       1     757     756     240     763
CTETRA       886       1    1164     756     240     757
CTETRA       887       1    1164     707    1139    1165
CTETRA       888       1    1164     707    1166    1138
CTETRA       889       1    1164    1166    1165    1167
CTETRA       890       1    1168    5121    1169    5122
CTETRA       891       1     486     497     488     479
CTETRA       892       1     479     489     486     497
CTETRA       893       1     486     835     487     488
CTETRA       894       1     486     504     487     833
CTETRA       895       1     488    1032     498     486
CTETRA       896       1     486     488    1170     835
CTETRA       897       1     486    1170    1032     834
CTETRA       898       1     486    1032     498    1171
CTETRA       899       1     248     579    1172     236
CTETRA       900       1    1173     234    1174    1175
CTETRA       901       1     234     247     236     246
CTETRA       902       1     236     447    1176     233
CTETRA       903       1    1177    1178    1179    1180
CTETRA       904       1    1181    5099    5082    5098
CTETRA       905       1    1149    5037    5016    5036
CTETRA       906       1    1182    1183    3487    1178
CTETRA       907       1     236     579    1172    1184
CTETRA       908       1     236    1185    1186    1187
CTETRA       909       1     693     176     692     691
CTETRA       910       1    1188    4866    4861    4860
CTETRA       911       1     693     692    1189     640
CTETRA       912       1     693     176     695    1190
CTETRA       913       1    1190     174    1189     693
CTETRA       914       1    1130    4704    1191    4705
CTETRA       915       1    4773    1190     174    1189
CTETRA       916       1     693     694     864    1192
CTETRA       917       1     693     695     694    1192
CTETRA       918       1    1182    1178    3487    3486
CTETRA       919       1    1193    1194    1195     967
CTETRA       920       1     966    1194     967    1196
CTETRA       921       1     966     967     965    1196
CTETRA       922       1     966    1194    1197     803
CTETRA       923       1     799     966     803     706
CTETRA       924       1     807     812    1155    1156
CTETRA       925       1     812     810     850     727
CTETRA       926       1     812     850    1198    1199
CTETRA       927       1     812     727    1200    1201
CTETRA       928       1     812    1155    1156    1201
CTETRA       929       1    1202      18      16      19
CTETRA       930       1      16     266     201    1203
CTETRA       931       1    1204    1205     162    1206
CTETRA       932       1    1044    1067     226    3218
CTETRA       933       1     428    1026    1207     275
CTETRA       934       1    1208    5223    5222    5252
CTETRA       935       1     428    1008    1209     250
CTETRA       936       1     428     429    1207    1008
CTETRA       937       1     428     429     274     275
CTETRA       938       1    1210    3366    5711    3387
CTETRA       939       1    1211     122     115     771
CTETRA       940       1     767     777     691     688
CTETRA       941       1    1057    1044    3101    3100
CTETRA       942       1     770    1212     512    1213
CTETRA       943       1     770     511     695    1213
CTETRA       944       1      58    1214     772    1215
CTETRA       945       1    1215    1214     772     774
CTETRA       946       1    1215    1216    1217    1218
CTETRA       947       1    1215    1219    1217    1220
CTETRA       948       1    1215      58    1219    1220
CTETRA       949       1     782     257     787     427
CTETRA       950       1     734    1207    1163    1091
CTETRA       951       1      37      39    1221     734
CTETRA       952       1      39    1221     734     787
CTETRA       953       1     787    1207     427    1008
CTETRA       954       1    1067    1222    1017     674
CTETRA       955       1    1028    1223    1224    1030
CTETRA       956       1      96      94    1076     303
CTETRA       957       1    1225     765      96      91
CTETRA       958       1    1076    1226      91     765
CTETRA       959       1      96     756     789    1227
CTETRA       960       1     758     765      96     763
CTETRA       961       1    1225     763     239      96
CTETRA       962       1     756     758     303      96
CTETRA       963       1    1228    3951    3955    3950
CTETRA       964       1     440    5098    1181    5082
CTETRA       965       1     758     766     303     765
CTETRA       966       1     758      96     765     303
CTETRA       967       1     377      96     789     276
CTETRA       968       1    1194     803    1193     386
CTETRA       969       1     387     149     386     803
CTETRA       970       1     392     149     803    1197
CTETRA       971       1     454     461     463     137
CTETRA       972       1     146     144     149     392
CTETRA       973       1      64      60      65      73
CTETRA       974       1     304     298     385      65
CTETRA       975       1      62      65      73     304
CTETRA       976       1     910     382     384      65
CTETRA       977       1     304     298      65      73
CTETRA       978       1     297    1070      73     298
CTETRA       979       1      65      70      73     297
CTETRA       980       1    1229    1230    4279    4276
CTETRA       981       1    1133    1231    1104    1232
CTETRA       982       1    1233    3839    3825    3826
CTETRA       983       1    1133    1231     474    1234
CTETRA       984       1    1133    1231    1232     474
CTETRA       985       1     414     474     415    1235
CTETRA       986       1    1133    1231    1234    1217
CTETRA       987       1    1133    1236     696    1237
CTETRA       988       1    1238      44     857    1110
CTETRA       989       1    1111    1238    1109    1239
CTETRA       990       1    1239    1238    1240    1111
CTETRA       991       1    1241    1238    1240    1239
CTETRA       992       1    1238     857      44     359
CTETRA       993       1    1242     359    1241    1239
CTETRA       994       1    1243    4283    1244    1229
CTETRA       995       1    1245    1246    1247    1248
CTETRA       996       1    1245     450    1249    1247
CTETRA       997       1    1245    4494    1250    1246
CTETRA       998       1    1245     450     802    1251
CTETRA       999       1    1245     801     802     805
CTETRA      1000       1    1245    1250    4494    1251
CTETRA      1001       1    1245     805    1250     801
CTETRA      1002       1    1252    1253    1254    1255
CTETRA      1003       1    1256    4448    4171    5788
CTETRA      1004       1     864     639     628     640
CTETRA      1005       1     628     629     637     639
CTETRA      1006       1     629     639     630    1257
CTETRA      1007       1     629     634    1258    1259
CTETRA      1008       1    1260     845    5001    5022
CTETRA      1009       1     401     903    1001    1003
CTETRA      1010       1    5625    3125    4154    5624
CTETRA      1011       1     401     197     196     942
CTETRA      1012       1     407    1261     865    1262
CTETRA      1013       1     942     865     866     407
CTETRA      1014       1     407     405    1262     657
CTETRA      1015       1    1263     865    1264    1261
CTETRA      1016       1    1264    1003    1265    1263
CTETRA      1017       1    1233    3825    3839    3841
CTETRA      1018       1    4980    1266    1265    1267
CTETRA      1019       1    1263     601    1266    1268
CTETRA      1020       1    1266    1265    1267    1263
CTETRA      1021       1    1269     816     680     362
CTETRA      1022       1     816     364     362    1269
CTETRA      1023       1     816     680     362    1097
CTETRA      1024       1     816    1270     808    1271
CTETRA      1025       1     816    1097    1272     680
CTETRA      1026       1    1273     843    1260     845
CTETRA      1027       1    1274     808    1271    1272
CTETRA      1028       1     681     682     685     333
CTETRA      1029       1     682    1275     335     333
CTETRA      1030       1     682     846    1275     333
CTETRA      1031       1    1276    1260     526    1277
CTETRA      1032       1     682     660     662     742
CTETRA      1033       1     682     659     660    1278
CTETRA      1034       1    5726    1279    1280    1281
CTETRA      1035       1    1282     179    1279     565
CTETRA      1036       1     565     179    1279     184
CTETRA      1037       1     179    1282    1013     565
CTETRA      1038       1    1283    1284    1285    3681
CTETRA      1039       1    1286     846    1287    1288
CTETRA      1040       1    1286    1289     725    1290
CTETRA      1041       1    1286     847    1289     846
CTETRA      1042       1     847    1286     813     846
CTETRA      1043       1    1286    1291    1289    1290
CTETRA      1044       1    1292    1293    4759    1294
CTETRA      1045       1    1286    1287     846    1295
CTETRA      1046       1    1296     194     604     190
CTETRA      1047       1     603     604    1297     611
CTETRA      1048       1    1298    1299    1300    1301
CTETRA      1049       1     942     197    1296     865
CTETRA      1050       1    1302     600    1303     865
CTETRA      1051       1     599     603     600    1302
CTETRA      1052       1     603     604    1296    1297
CTETRA      1053       1     599     604     603     611
CTETRA      1054       1     603     529     865    1302
CTETRA      1055       1    1304    1305    1306     970
CTETRA      1056       1     603     865     529    1296
CTETRA      1057       1    1238    1111    1110    1240
CTETRA      1058       1    1110    1111    1238    1109
CTETRA      1059       1    1239     360     358     828
CTETRA      1060       1    1239    1242    1307    1308
CTETRA      1061       1    1238    1239     359     358
CTETRA      1062       1    1111    1239    1309    1240
CTETRA      1063       1    1239    1308    1111    1309
CTETRA      1064       1     687    1309    1310    1240
CTETRA      1065       1    1311    1309    1310     687
CTETRA      1066       1     690     831    1111    1109
CTETRA      1067       1    1111    1240     687    1110
CTETRA      1068       1    1215    1312     773    1218
CTETRA      1069       1     857    1110      44      52
CTETRA      1070       1    1313    3465    3466    3653
CTETRA      1071       1     748      45      42      44
CTETRA      1072       1    1314    1315     994     417
CTETRA      1073       1    1316    1314    1315     994
CTETRA      1074       1     417     468      23      20
CTETRA      1075       1    1317    1318    1319    1320
CTETRA      1076       1     417    1315     468    1321
CTETRA      1077       1     417    1322     420    1314
CTETRA      1078       1     417     468      20    1321
CTETRA      1079       1    1323     936     937      12
CTETRA      1080       1     641      11    1323     937
CTETRA      1081       1    1323     644     936    1324
CTETRA      1082       1    1325    1326    1327    4603
CTETRA      1083       1    1328    3615    3571    3617
CTETRA      1084       1     641     939     212     937
CTETRA      1085       1     293     127     126     528
CTETRA      1086       1       9       7     433     870
CTETRA      1087       1     127     293     292     539
CTETRA      1088       1     126     293     529     866
CTETRA      1089       1     289       9     293     292
CTETRA      1090       1     728     838     731    1329
CTETRA      1091       1    1329     841    1330     728
CTETRA      1092       1     728    1331     838    1332
CTETRA      1093       1     728     838    1331     732
CTETRA      1094       1     728     841    1330    1332
CTETRA      1095       1    1333    1334    1335    1336
CTETRA      1096       1     728     838     730     731
CTETRA      1097       1     728     838     732     730
CTETRA      1098       1    1284    1285    3681    3745
CTETRA      1099       1     293     539     286     288
CTETRA      1100       1    1284    3744    1336    3745
CTETRA      1101       1     296     295     866     293
CTETRA      1102       1    1130    4241    1337    1131
CTETRA      1103       1    1299    1338    1283    1339
CTETRA      1104       1    1340    1341    1275    1342
CTETRA      1105       1     480    1343    1342    1341
CTETRA      1106       1     480    1342    1343     497
CTETRA      1107       1     480    1344     481    1275
CTETRA      1108       1     480    1342    1042    1344
CTETRA      1109       1    1345    3640    3625    3636
CTETRA      1110       1     480    1342     497    1042
CTETRA      1111       1    1346    1347     349     348
CTETRA      1112       1     349    1348     347    1349
CTETRA      1113       1     348    1350    1346    1347
CTETRA      1114       1    1351     349     344    1352
CTETRA      1115       1    1351    1353    1354     349
CTETRA      1116       1     349    1353    1354    1348
CTETRA      1117       1     349    1352    1355    1346
CTETRA      1118       1    5607    1356    5720    1357
CTETRA      1119       1    1357     285    1358    1359
CTETRA      1120       1    1357    1356    5720    1358
CTETRA      1121       1    1360    5326    1361    5320
CTETRA      1122       1    5717    1362    5718    1359
CTETRA      1123       1    1357     285    1359    1362
CTETRA      1124       1    1357    1362    5718    5606
CTETRA      1125       1     616    1363    1364    1365
CTETRA      1126       1    1364    1365    5475     616
CTETRA      1127       1    1084    1077    1081    1086
CTETRA      1128       1    1285    3681    3745    3746
CTETRA      1129       1    1364    5427    5451     163
CTETRA      1130       1    5474     616    5473    1364
CTETRA      1131       1    1366    1367    5439    1368
CTETRA      1132       1    1369    1370    1371    1372
CTETRA      1133       1    1366    5461    1373    1368
CTETRA      1134       1    1374    1366    5461    1373
CTETRA      1135       1    1368    1366    5461    5438
CTETRA      1136       1    1366    5439    5438    1368
CTETRA      1137       1    1375    1366    5439    5438
CTETRA      1138       1    1368    1373    1376    1377
CTETRA      1139       1     703     705     707    1138
CTETRA      1140       1    1378    4630    4612    4629
CTETRA      1141       1    1379    1380    1381    1382
CTETRA      1142       1    1383    5899    3313    3319
CTETRA      1143       1     445     708     450     802
CTETRA      1144       1     445    1138     703     702
CTETRA      1145       1     445     703     705     708
CTETRA      1146       1     705     706    1247     805
CTETRA      1147       1     703     711     712     707
CTETRA      1148       1    1138     707    1166     705
CTETRA      1149       1      99    1384     107     888
CTETRA      1150       1    1385     107     889     930
CTETRA      1151       1    1370    1371    1372    1386
CTETRA      1152       1    1387     888     889     107
CTETRA      1153       1     100     924     106     107
CTETRA      1154       1    1388    3422    5865    3420
CTETRA      1155       1    1389    1390    3574    3575
CTETRA      1156       1     107     925     930    1385
CTETRA      1157       1     875     889     107     876
CTETRA      1158       1     930    1385    1391     889
CTETRA      1159       1      27      40      30     557
CTETRA      1160       1     565      29      32    1392
CTETRA      1161       1      29    1393    1392     565
CTETRA      1162       1      29     565    1282    1393
CTETRA      1163       1      27      29      37    1394
CTETRA      1164       1     824     828     830     352
CTETRA      1165       1      29    1394    1395      37
CTETRA      1166       1      29    1394    1393    1395
CTETRA      1167       1    1130    1396    1337    4242
CTETRA      1168       1     599     605    1397    1398
CTETRA      1169       1     605    1397     191     604
CTETRA      1170       1     599    1397     605     604
CTETRA      1171       1     605     189    1399     602
CTETRA      1172       1     599     189     605     602
CTETRA      1173       1     605     606    1400    1401
CTETRA      1174       1     605     189     191    1399
CTETRA      1175       1     763     240     245    1225
CTETRA      1176       1     377      97     793     380
CTETRA      1177       1     234    1402    1173     235
CTETRA      1178       1     238     234     246     240
CTETRA      1179       1     789     238     756     239
CTETRA      1180       1     234    1175     239     238
CTETRA      1181       1     234     239    1173    1402
CTETRA      1182       1    1402     239    1403    1225
CTETRA      1183       1     324    1404     944     283
CTETRA      1184       1    1404     330     324    1405
CTETRA      1185       1    1406    1407    4721    4715
CTETRA      1186       1    1305    1406    4717    1408
CTETRA      1187       1    1409    1410    1411    1412
CTETRA      1188       1     317     325     326     318
CTETRA      1189       1     324     318     317     326
CTETRA      1190       1     330     326     324    1413
CTETRA      1191       1     747     750     751     749
CTETRA      1192       1    1414    1415    1416    1417
CTETRA      1193       1    1414    1418    1419    1417
CTETRA      1194       1     748     359    1420     749
CTETRA      1195       1     747     748      48    1421
CTETRA      1196       1    1421     747     750     752
CTETRA      1197       1     748      48      49     464
CTETRA      1198       1      44      49     748      45
CTETRA      1199       1     748      49      44     359
CTETRA      1200       1     857    1110      52    1240
CTETRA      1201       1     359     857     748     851
CTETRA      1202       1     359     464     749     748
CTETRA      1203       1    1422     972     222    1423
CTETRA      1204       1    1422    1424    1425     232
CTETRA      1205       1    1422     254     229    1425
CTETRA      1206       1    1422     972    1426    1427
CTETRA      1207       1    1414    1428    1429    1430
CTETRA      1208       1    5248    4767    5885    5884
CTETRA      1209       1    1418    1431    1416    1414
CTETRA      1210       1     783    1432    1419    1417
CTETRA      1211       1    1432    1419    1417    1414
CTETRA      1212       1    1414    1431    1430    1433
CTETRA      1213       1    1414    1419    1418    1433
CTETRA      1214       1     875    1434     890     886
CTETRA      1215       1      91    1435    1226     378
CTETRA      1216       1    1436    1437    1438    1439
CTETRA      1217       1     168     170     375     388
CTETRA      1218       1     378      91     545    1226
CTETRA      1219       1      89      90      92     372
CTETRA      1220       1     379     371    1434     372
CTETRA      1221       1    1440    5060    5055    5063
CTETRA      1222       1    1441     826    1442    1443
CTETRA      1223       1     826    1443    1441    1444
CTETRA      1224       1     795    1445    1409    1406
CTETRA      1225       1     350     352     827     826
CTETRA      1226       1     826    1446    1447    1442
CTETRA      1227       1     826    1444    1448     353
CTETRA      1228       1     637     353     825     824
CTETRA      1229       1     106     379     887      95
CTETRA      1230       1     924     106     107     876
CTETRA      1231       1      89      94      92      91
CTETRA      1232       1    1449      94     545     717
CTETRA      1233       1      94     545     717      92
CTETRA      1234       1     378      92     545      91
CTETRA      1235       1     919     876    1450     321
CTETRA      1236       1     876    1450     921     919
CTETRA      1237       1     924     322     323     926
CTETRA      1238       1     320     717     322      95
CTETRA      1239       1     930     924     107     876
CTETRA      1240       1     106     876     924      95
CTETRA      1241       1    1451     371    1452     372
CTETRA      1242       1    1453     886    1454     890
CTETRA      1243       1     886    1453    1455    1456
CTETRA      1244       1    1434     886    1451    1456
CTETRA      1245       1    1434    1451     886     372
CTETRA      1246       1    1434    1453    1457     890
CTETRA      1247       1     379     372    1434     886
CTETRA      1248       1    1434    1457    1458     890
CTETRA      1249       1     379     541     875    1434
CTETRA      1250       1    1428     669     573     571
CTETRA      1251       1    1428    1021    1186     571
CTETRA      1252       1    1428    1021    1459    1186
CTETRA      1253       1    1460    1461    1462    1463
CTETRA      1254       1    1422    1424     232    1464
CTETRA      1255       1    1465     616    1466     615
CTETRA      1256       1    5473     616    1465     615
CTETRA      1257       1     615    1466    1467     552
CTETRA      1258       1     615    5472     552    5495
CTETRA      1259       1    1465     615    5496    5473
CTETRA      1260       1      26    1468      19    1469
CTETRA      1261       1     969    1470    1471    1472
CTETRA      1262       1      18    1473    1144      26
CTETRA      1263       1      26    1474      25    1475
CTETRA      1264       1    1476    5411    1477    5359
CTETRA      1265       1      26    1468    1478    1475
CTETRA      1266       1      26    1148    1474    1478
CTETRA      1267       1    1144    1148      26    1473
CTETRA      1268       1     164     434     441     984
CTETRA      1269       1     434     439     437     436
CTETRA      1270       1     404     396     406     439
CTETRA      1271       1     404     405     868    1479
CTETRA      1272       1    1480    1481    1482    1365
CTETRA      1273       1    1480    5476    1365    1482
CTETRA      1274       1    1348    4486    4485    4591
CTETRA      1275       1    1483    5476    5452    5475
CTETRA      1276       1    4565    4568    1353    4486
CTETRA      1277       1    1484    1485    1486    4135
CTETRA      1278       1    5453    5476    5452    1483
CTETRA      1279       1    5453    5454    1480    1483
CTETRA      1280       1     550    1487     551     205
CTETRA      1281       1     205    1466    1488     616
CTETRA      1282       1    1488    1489    1490     205
CTETRA      1283       1    1489     205    1491    1487
CTETRA      1284       1    1492    1391     645    3119
CTETRA      1285       1    1486    1485    4129    4135
CTETRA      1286       1    1490    1487     550     205
CTETRA      1287       1    1493    1490    1487     550
CTETRA      1288       1     205     616    1488    1489
CTETRA      1289       1     552    1494     206     205
CTETRA      1290       1     948     949    1495    1496
CTETRA      1291       1     948    1497    1498    1499
CTETRA      1292       1     948     949     432     430
CTETRA      1293       1     863    1500    4778    1501
CTETRA      1294       1     948    1495     949     430
CTETRA      1295       1    1502    1503    1369    1504
CTETRA      1296       1    1502     219    1316     221
CTETRA      1297       1     218    1502     221     219
CTETRA      1298       1    1502    1505    1506    1503
CTETRA      1299       1    1502     219    1504    1369
CTETRA      1300       1     150     161     155     896
CTETRA      1301       1     161     896    1507     155
CTETRA      1302       1     155     171    1508    1509
CTETRA      1303       1    1510    1492    1486    4153
CTETRA      1304       1     871    1511    1512     872
CTETRA      1305       1     607     871     872     614
CTETRA      1306       1    1511     871     614     872
CTETRA      1307       1    1513    1514    1515    1516
CTETRA      1308       1    1517     873    1518     871
CTETRA      1309       1     871     614    1519    1520
CTETRA      1310       1    1519     871    1518    1521
CTETRA      1311       1    1517     871    1518    1519
CTETRA      1312       1    1522    5055    5101    5056
CTETRA      1313       1    1523    5249    1524    5243
CTETRA      1314       1    1525    5726     316    5614
CTETRA      1315       1    1525    1526    1527    1528
CTETRA      1316       1    5727    1528    5726     316
CTETRA      1317       1    1528    5726     316    1525
CTETRA      1318       1    1525    1528    5726    1281
CTETRA      1319       1    1529    1530    1531    1532
CTETRA      1320       1      58      59    1533    1529
CTETRA      1321       1    1534    4133    4130    4131
CTETRA      1322       1      54    1215    1216    1220
CTETRA      1323       1      54    1216    1535    1220
CTETRA      1324       1    1536      55     879      54
CTETRA      1325       1      54    1215    1220      58
CTETRA      1326       1    1215     772      58    1537
CTETRA      1327       1    1237      58    1214    1531
CTETRA      1328       1    1237      58    1106    1220
CTETRA      1329       1     148    1538     391    1539
CTETRA      1330       1    4744    1540     566    4751
CTETRA      1331       1     148     144    1541     145
CTETRA      1332       1     148     729     727     391
CTETRA      1333       1    1048    1542    1058    1055
CTETRA      1334       1     122     115     771     117
CTETRA      1335       1     777     175     688      52
CTETRA      1336       1     767    1543     688     508
CTETRA      1337       1     770     745    1544     691
CTETRA      1338       1     737     777     745     455
CTETRA      1339       1     691     777     745     737
CTETRA      1340       1     777     691     688     175
CTETRA      1341       1     702     240    1139     238
CTETRA      1342       1     234     239    1175    1173
CTETRA      1343       1    1464    1545    1546    1499
CTETRA      1344       1    1164    1139     240     756
CTETRA      1345       1    1498    1547    1499    1497
CTETRA      1346       1    1548    4795    4796    4785
CTETRA      1347       1    1249     240     449     245
CTETRA      1348       1     238     756     239     240
CTETRA      1349       1    1549    1550    4254    1551
CTETRA      1350       1     763     239      96     756
CTETRA      1351       1     763     240    1249     245
CTETRA      1352       1    1552     669     668    1415
CTETRA      1353       1    4296    5826    5825    4925
CTETRA      1354       1    1553     321    1450    1554
CTETRA      1355       1    1552    1170     670    1555
CTETRA      1356       1    1433    5156    1556    5158
CTETRA      1357       1    1552    1416    1186     669
CTETRA      1358       1    1552     571    1186    1184
CTETRA      1359       1    1552     670     668     669
CTETRA      1360       1    1552     670     669     571
CTETRA      1361       1    1552     836     834    1379
CTETRA      1362       1    1557    1558    1559    1560
CTETRA      1363       1    1557    1559    1558    1561
CTETRA      1364       1    1557    1035    1562    1038
CTETRA      1365       1    1557    1035    1038    1563
CTETRA      1366       1    1557    1035    1042    1562
CTETRA      1367       1     896     537     171     155
CTETRA      1368       1     665     156     155     537
CTETRA      1369       1    1424    1564    1551    1549
CTETRA      1370       1    1565    5125    5126    5117
CTETRA      1371       1     155    1507     171     896
CTETRA      1372       1     171     661    1566     662
CTETRA      1373       1     661     172     169     165
CTETRA      1374       1     168     537     665     171
CTETRA      1375       1     171    1567     165     902
CTETRA      1376       1     479    1568     487     481
CTETRA      1377       1     479    1569     480     497
CTETRA      1378       1     479     487    1568     488
CTETRA      1379       1     486     835     832     487
CTETRA      1380       1     487    1570     838     833
CTETRA      1381       1     487    1570     332     838
CTETRA      1382       1     487     332     269     838
CTETRA      1383       1     332     481     334    1570
CTETRA      1384       1     332     731    1329     337
CTETRA      1385       1     332     838    1329     731
CTETRA      1386       1    1571    1572    3199    3191
CTETRA      1387       1    1343    1573    1574    1575
CTETRA      1388       1    1576    1577     950    5368
CTETRA      1389       1    1342    1575    1578    1579
CTETRA      1390       1    1580    1581    1582    1583
CTETRA      1391       1    1578    1342    1509    1560
CTETRA      1392       1    1575    1584    1343    1342
CTETRA      1393       1    1557    1584    1575    1342
CTETRA      1394       1    1585    5383    5367    5386
CTETRA      1395       1    1586    1584    1205    1561
CTETRA      1396       1    1584    1205    1561    1575
CTETRA      1397       1    1428    1431    1186    1459
CTETRA      1398       1    1021    1186     571     569
CTETRA      1399       1    1021    1186     569     235
CTETRA      1400       1    1021    1587    1588    1022
CTETRA      1401       1    1428    1587    1021    1019
CTETRA      1402       1    1018     381    1021    1024
CTETRA      1403       1    1018    1022    1589    1021
CTETRA      1404       1    1014    1015    1590    1591
CTETRA      1405       1     673     672     674    1222
CTETRA      1406       1    1032     668    1033    1171
CTETRA      1407       1    1592    3414    3408    3415
CTETRA      1408       1    1593    1594    4253    3523
CTETRA      1409       1    1595    5759    3537    3539
CTETRA      1410       1     486     488    1032    1170
CTETRA      1411       1     451    1251    1596     450
CTETRA      1412       1     451    1597     449     446
CTETRA      1413       1     449     450    1598     451
CTETRA      1414       1     949    1496    1595    1495
CTETRA      1415       1    1599    1600    1244    4185
CTETRA      1416       1     451    1601     448    1596
CTETRA      1417       1     513     518     517      67
CTETRA      1418       1     517    4394    1602    1603
CTETRA      1419       1     517      67    1604     519
CTETRA      1420       1    1585     949     950    1549
CTETRA      1421       1     517     519    4400    4392
CTETRA      1422       1     517    4401    1602    4394
CTETRA      1423       1     517      67    1602    1604
CTETRA      1424       1     517    1602    4401    4400
CTETRA      1425       1     317     328     327     324
CTETRA      1426       1    1605     328     518    1606
CTETRA      1427       1     944     327     278     934
CTETRA      1428       1     278     944     283     324
CTETRA      1429       1     327     934     944     328
CTETRA      1430       1     327     538     278     584
CTETRA      1431       1     328     584     935     329
CTETRA      1432       1     934     584     935     328
CTETRA      1433       1      57    1607    1608    1609
CTETRA      1434       1      63     880      33      55
CTETRA      1435       1     917     546      63     880
CTETRA      1436       1      62    1142     549    1141
CTETRA      1437       1    1610    1611    1612    1613
CTETRA      1438       1      54    1537    1536    1614
CTETRA      1439       1    1244    4275    4184    1615
CTETRA      1440       1     878     916    1616      65
CTETRA      1441       1      63     918    1609     877
CTETRA      1442       1     917    1609    1617     880
CTETRA      1443       1    1610    1612    1618    4246
CTETRA      1444       1     219    1321     224    1080
CTETRA      1445       1    1068     306    1076     714
CTETRA      1446       1     714     310    1619    1073
CTETRA      1447       1     713     714     720      94
CTETRA      1448       1     289     291     285     295
CTETRA      1449       1     286     289     285     296
CTETRA      1450       1     288     289     285     286
CTETRA      1451       1    1620     288     285     287
CTETRA      1452       1    4245    1610    1337    1618
CTETRA      1453       1     285     294    1620    1621
CTETRA      1454       1     294     289     290     291
CTETRA      1455       1     289     285     294     288
CTETRA      1456       1     285     294    1622    1623
CTETRA      1457       1    1610    1624    1337    1625
CTETRA      1458       1     596    5571     597    5548
CTETRA      1459       1    1130    1396    4705    1191
CTETRA      1460       1    1131    4241    1618    4240
CTETRA      1461       1     396     535     903    1626
CTETRA      1462       1     396     398     164     434
CTETRA      1463       1     434     396     167     164
CTETRA      1464       1     256    1627    1628    1625
CTETRA      1465       1    1629    1630    1105    1100
CTETRA      1466       1    1629    1101    1100    1103
CTETRA      1467       1    1631    1629    1632    1607
CTETRA      1468       1    1607    1629    1632    1633
CTETRA      1469       1    1629    1630    1100    1631
CTETRA      1470       1    1535    1634    1608    1635
CTETRA      1471       1      57    1634    1535    1614
CTETRA      1472       1      57    1535    1608    1100
CTETRA      1473       1      55    1636    1637     877
CTETRA      1474       1      54    1535    1216    1614
CTETRA      1475       1    1638    1628     254     256
CTETRA      1476       1    1110     690     692     688
CTETRA      1477       1    1238    1239     358    1109
CTETRA      1478       1     690    1109    1111    1110
CTETRA      1479       1     689     692     690     688
CTETRA      1480       1     690     687     688    1110
CTETRA      1481       1     687    1240     688    1110
CTETRA      1482       1      81    1639    1091    1640
CTETRA      1483       1      81    1639      87     785
CTETRA      1484       1      81    1639     785    1091
CTETRA      1485       1     582    5678    3296    3300
CTETRA      1486       1    1360    1641    5326    5327
CTETRA      1487       1     118    1091     618     124
CTETRA      1488       1    1130    4705    4673    4704
CTETRA      1489       1    1419    5141    5157    5155
CTETRA      1490       1    1642    1643    1644    1645
CTETRA      1491       1    1644    1646    3672    1647
CTETRA      1492       1    1646    1648    1137    1642
CTETRA      1493       1    1642    1643    1649    1644
CTETRA      1494       1    1642    1650    1647    1649
CTETRA      1495       1    1428    1021    1587    1459
CTETRA      1496       1    1587    1651     411    1652
CTETRA      1497       1    1587    1651    1588     411
CTETRA      1498       1    1587    1652     411    1653
CTETRA      1499       1    1587    1654    1429    1653
CTETRA      1500       1    1428    1459    1430    1431
CTETRA      1501       1    1414    1655    1428     669
CTETRA      1502       1    1414    1656    1655    1432
CTETRA      1503       1    1657    1658    1659    1656
CTETRA      1504       1    1658    1659    1656    1655
CTETRA      1505       1    1033     672    1655     668
CTETRA      1506       1    1611    1660    1131    1618
CTETRA      1507       1     672     668     669    1655
CTETRA      1508       1    1655    1432    1656    1658
CTETRA      1509       1    1655     672    1659    1661
CTETRA      1510       1    1662    1663    1664    1665
CTETRA      1511       1    1610    1611    1337    1618
CTETRA      1512       1     968    1666    1667    1351
CTETRA      1513       1     917    1609     968    1617
CTETRA      1514       1     964     968     969     711
CTETRA      1515       1     967    1631      84     969
CTETRA      1516       1     968     967    1666     575
CTETRA      1517       1    1639      80      81      87
CTETRA      1518       1     426     427    1640     429
CTETRA      1519       1    1639    1051      87     785
CTETRA      1520       1     605    1399    1668     606
CTETRA      1521       1     427     785    1091     782
CTETRA      1522       1      94      91    1076     545
CTETRA      1523       1      98      97     276      89
CTETRA      1524       1    4345    4301    4320    1668
CTETRA      1525       1      91      94    1076      96
CTETRA      1526       1      96     277      94     303
CTETRA      1527       1      94    1449    1076    1669
CTETRA      1528       1    1670    1671    1049    1672
CTETRA      1529       1    1670    1673    1674    1675
CTETRA      1530       1    1670    1673    1676    1672
CTETRA      1531       1     630    1671    1677    1678
CTETRA      1532       1     606    1679    1401    1680
CTETRA      1533       1    1670    1677    1678    1681
CTETRA      1534       1     543    3936    3943    3944
CTETRA      1535       1    1400    1401    4345    1682
CTETRA      1536       1    1670    1681    1678    1676
CTETRA      1537       1    1672    1671    1678    1670
CTETRA      1538       1    1400    4346    1401    4322
CTETRA      1539       1    1670    1676    1678    1672
CTETRA      1540       1     677     812     813     850
CTETRA      1541       1     807    1198     677     806
CTETRA      1542       1     815     677     812     813
CTETRA      1543       1     812    1154    1199    1198
CTETRA      1544       1     331     850     339    1150
CTETRA      1545       1     724     725     850     731
CTETRA      1546       1     339     727    1199     850
CTETRA      1547       1    1683    1237    1684    1685
CTETRA      1548       1    1686    1687    1688    1689
CTETRA      1549       1    4396    4403    4395    1690
CTETRA      1550       1    1683    1237    1685    1214
CTETRA      1551       1    1683    1214    1531    1237
CTETRA      1552       1     964     706     710     971
CTETRA      1553       1     711    1142     578    1143
CTETRA      1554       1     304      73      62     549
CTETRA      1555       1     711    1142    1141    1650
CTETRA      1556       1     917     711     968     577
CTETRA      1557       1    1032    1170     488    1029
CTETRA      1558       1     497     498     486     488
CTETRA      1559       1    1641    1691    1692    1693
CTETRA      1560       1    1014    1042    1591     488
CTETRA      1561       1     488    1590     835    1694
CTETRA      1562       1    1695    4455    4531    4454
CTETRA      1563       1     488    1170    1590    1029
CTETRA      1564       1     486     834     835    1170
CTETRA      1565       1     114     111     110     121
CTETRA      1566       1     111    1696     116     120
CTETRA      1567       1    1697    1698     360     464
CTETRA      1568       1    1697    1699     468    1321
CTETRA      1569       1    1697     468     466     470
CTETRA      1570       1    1697     468     470    1321
CTETRA      1571       1    1697    1321    1700    1079
CTETRA      1572       1    1701    4540    4546    4539
CTETRA      1573       1    1700    1697     470    1321
CTETRA      1574       1     360    1697    1702    1079
CTETRA      1575       1    1702    1079    1703     360
CTETRA      1576       1     155    1578     161     157
CTETRA      1577       1     161    1578    1558    1704
CTETRA      1578       1     150     161     896     159
CTETRA      1579       1     159    1705    3246    1704
CTETRA      1580       1     161    1558    1706    1707
CTETRA      1581       1    1704    1705    3246    1707
CTETRA      1582       1       6     126     531     866
CTETRA      1583       1     567    4028    4031    4032
CTETRA      1584       1       2     128       4     988
CTETRA      1585       1    1708    1690    1709    1710
CTETRA      1586       1     130     988    1711     131
CTETRA      1587       1     130    1303    1712    1711
CTETRA      1588       1       8       1     126     284
CTETRA      1589       1       6     133    1262     656
CTETRA      1590       1     130     132    1712     284
CTETRA      1591       1     202     212    1713     313
CTETRA      1592       1     367    1714     258     625
CTETRA      1593       1     261    1445     625     624
CTETRA      1594       1     625    1445    1715     624
CTETRA      1595       1     625      24     365    1714
CTETRA      1596       1     625    1445    1716    1715
CTETRA      1597       1      16      24     625    1714
CTETRA      1598       1      11      15     212     209
CTETRA      1599       1    1075    4031    4034    4035
CTETRA      1600       1     202    1715     210     201
CTETRA      1601       1      16     266    1717    1714
CTETRA      1602       1      16      24    1717      19
CTETRA      1603       1      24    1475    1007      19
CTETRA      1604       1    1583    1718    1719    1720
CTETRA      1605       1      24     208    1475      25
CTETRA      1606       1     111    1721     808    1696
CTETRA      1607       1     110     121     122     114
CTETRA      1608       1     111     114    1270     808
CTETRA      1609       1     807    1160     114    1270
CTETRA      1610       1    1721     114    1155    1722
CTETRA      1611       1    1723     862    1724    1725
CTETRA      1612       1    1723     509     862    1725
CTETRA      1613       1     509    1726    1328    1723
CTETRA      1614       1    1727     509    1726    1328
CTETRA      1615       1    1723     509     635     862
CTETRA      1616       1    1728     509    1723    1726
CTETRA      1617       1    1723      78    1729    1724
CTETRA      1618       1    1723      78     507     509
CTETRA      1619       1    1113      38      32    1730
CTETRA      1620       1      27      29    1394      32
CTETRA      1621       1      39      32    1394    1731
CTETRA      1622       1    1119     781    1113     734
CTETRA      1623       1    1608    1630     342    1667
CTETRA      1624       1    1608    1609    1732    1634
CTETRA      1625       1    1608    1667    1631    1630
CTETRA      1626       1     149     803    1197    1194
CTETRA      1627       1    1606     518    1603     516
CTETRA      1628       1     136     149     137     452
CTETRA      1629       1     148     144    1538    1541
CTETRA      1630       1     146     148     391     394
CTETRA      1631       1     146     144     392     391
CTETRA      1632       1     800    1197    1538     392
CTETRA      1633       1     149    1194     452     460
CTETRA      1634       1     454     137     138     136
CTETRA      1635       1     452     149     137     144
CTETRA      1636       1    1197     144     149     452
CTETRA      1637       1     137     138     139     145
CTETRA      1638       1     972     995     228     223
CTETRA      1639       1     972    1423    1733     223
CTETRA      1640       1    4361    1734    4396    4360
CTETRA      1641       1    1735    1736    1737    1738
CTETRA      1642       1    1735    1739    1740    1741
CTETRA      1643       1    1735     224    1742    1743
CTETRA      1644       1    1735    1743    1740    1739
CTETRA      1645       1    1591    1744    1015    1590
CTETRA      1646       1     270    1568     272     269
CTETRA      1647       1    1745    1568     272     270
CTETRA      1648       1     270    1591    1694    1590
CTETRA      1649       1     270    1568     269    1694
CTETRA      1650       1     270    1591    1568    1694
CTETRA      1651       1     270    1568    1746    1745
CTETRA      1652       1     271    1590    1747     270
CTETRA      1653       1     808    1271    1272     816
CTETRA      1654       1    1748    1749    1093    1097
CTETRA      1655       1     564    1272    1749     560
CTETRA      1656       1    1272     560     564    1271
CTETRA      1657       1    1750     560    1751    1272
CTETRA      1658       1    3307    3314    3312    1752
CTETRA      1659       1    1690    4359    1603    4395
CTETRA      1660       1    1272     808     680    1753
CTETRA      1661       1     776    3102    3103    3169
CTETRA      1662       1    1272    1753    1097    1754
CTETRA      1663       1    1239     828    1307     360
CTETRA      1664       1     636    1311    1111     860
CTETRA      1665       1    1239     828     831     860
CTETRA      1666       1    1238    1110    1109      44
CTETRA      1667       1    1109     358     830     828
CTETRA      1668       1    1109    1755     358     357
CTETRA      1669       1    1109     358    1755     830
CTETRA      1670       1    1112    1755     638     831
CTETRA      1671       1     831    1755     638     830
CTETRA      1672       1     278     538     284     273
CTETRA      1673       1     317     318     278     284
CTETRA      1674       1     278     318     132     284
CTETRA      1675       1      54    1756      58    1220
CTETRA      1676       1    1690    1603    4359    4365
CTETRA      1677       1    4365    1710    1709    1690
CTETRA      1678       1    1531    1237      58    1106
CTETRA      1679       1    1531    1237    1106    1333
CTETRA      1680       1    1531    1757    1532    1758
CTETRA      1681       1    1683    1237    1531    1333
CTETRA      1682       1      96     239    1225      91
CTETRA      1683       1     377     239     376    1173
CTETRA      1684       1    1403    1435    1226      91
CTETRA      1685       1     239    1225      91    1403
CTETRA      1686       1      89     276      94      96
CTETRA      1687       1     378     376      91    1435
CTETRA      1688       1    1236    1219    1217    1312
CTETRA      1689       1    1236    1219    1312     774
CTETRA      1690       1    1236     416     418    1759
CTETRA      1691       1     414     474    1134      23
CTETRA      1692       1    1279    1280    1281     179
CTETRA      1693       1     179     185     990    1281
CTETRA      1694       1     185     869    1281    1528
CTETRA      1695       1     185    1528    1279    1760
CTETRA      1696       1     130     129     284       1
CTETRA      1697       1     185     178     179       7
CTETRA      1698       1     179       7     990     185
CTETRA      1699       1       7     180       5       4
CTETRA      1700       1      20    1322     417    1321
CTETRA      1701       1    1761     224    1762    1743
CTETRA      1702       1    1699    1322     224    1761
CTETRA      1703       1     224    1078    1763    1080
CTETRA      1704       1     224    1699    1762    1321
CTETRA      1705       1     224    1322     225    1742
CTETRA      1706       1    1764    3950    3956    3949
CTETRA      1707       1     224    1735     225    1763
CTETRA      1708       1     407     865     197     942
CTETRA      1709       1     903     406    1765    1061
CTETRA      1710       1     865     656    1262    1261
CTETRA      1711       1    4751    4744    4745     566
CTETRA      1712       1     603    1264     865     197
CTETRA      1713       1       6    1262     865     656
CTETRA      1714       1     865     866     531     529
CTETRA      1715       1     865     531    1302     529
CTETRA      1716       1    1766    3126    3113    3129
CTETRA      1717       1     466     464     360     354
CTETRA      1718       1    1238     358     359      44
CTETRA      1719       1     354      50      49      44
CTETRA      1720       1     628     637     636     638
CTETRA      1721       1    1239     860    1111    1308
CTETRA      1722       1    1239    1109     831     828
CTETRA      1723       1    1310     688     508     687
CTETRA      1724       1     690     640     831    1112
CTETRA      1725       1     966    1194    1196     502
CTETRA      1726       1    1194     967    1196    1195
CTETRA      1727       1     386     460    1195    1194
CTETRA      1728       1     966    1197    1194     502
CTETRA      1729       1     966     803    1767    1193
CTETRA      1730       1     799     803     966    1197
CTETRA      1731       1     835    1379     836     837
CTETRA      1732       1     487     272     481    1568
CTETRA      1733       1     832     836     834     839
CTETRA      1734       1     835    1768     838    1694
CTETRA      1735       1     832     839     834     833
CTETRA      1736       1     838     837    1331    1768
CTETRA      1737       1     838     837     841    1332
CTETRA      1738       1     832     835     837     838
CTETRA      1739       1     835     837     838    1768
CTETRA      1740       1    1769    1770    4143     926
CTETRA      1741       1     185    1528     433     869
CTETRA      1742       1    1771    3958    3959    3954
CTETRA      1743       1     281    1760    1772    1528
CTETRA      1744       1     281    1772    1760    1148
CTETRA      1745       1       8       9    1773     273
CTETRA      1746       1     281    1772    1148    1147
CTETRA      1747       1     281    1147     292    1772
CTETRA      1748       1     281    1772     292     433
CTETRA      1749       1    1774    1764    3964     907
CTETRA      1750       1     478    5074    5047    5079
CTETRA      1751       1       6     133     656     134
CTETRA      1752       1       6     130     656     531
CTETRA      1753       1     539     528     127     293
CTETRA      1754       1    1262     407     406     405
CTETRA      1755       1     133     405    1479     868
CTETRA      1756       1       5     133     868     405
CTETRA      1757       1     302    1167    1165     304
CTETRA      1758       1    1164    1167     302     757
CTETRA      1759       1     758     302     303     766
CTETRA      1760       1     895     893     892    1775
CTETRA      1761       1     891     894     151     896
CTETRA      1762       1     892     902    1567     896
CTETRA      1763       1     513     329     514     518
CTETRA      1764       1     515     516     520     513
CTETRA      1765       1     329     935     585     584
CTETRA      1766       1     317     284     327     319
CTETRA      1767       1     329     317     327     319
CTETRA      1768       1     329     327     328     584
CTETRA      1769       1    1776    1777     551    1778
CTETRA      1770       1    1776    5492     551    5491
CTETRA      1771       1    1779    1776    5491    5514
CTETRA      1772       1    1766    1780    4149    3129
CTETRA      1773       1    1777    1776    5491    1779
CTETRA      1774       1    1776    1781    1779    1782
CTETRA      1775       1    1776     551     550    1778
CTETRA      1776       1    1783    3112    1385    3161
CTETRA      1777       1    1781    1782    1784    1785
CTETRA      1778       1    1781    1782    1785    1779
CTETRA      1779       1    1781    1786    5537    1785
CTETRA      1780       1     205     551     552    1494
CTETRA      1781       1    1494     206    5446    5447
CTETRA      1782       1    1465     311    5522    5521
CTETRA      1783       1    1494     551    5469    5468
CTETRA      1784       1     206    1787    1788    1494
CTETRA      1785       1    1494     206    1487    1788
CTETRA      1786       1    1164     240    1139    1138
CTETRA      1787       1     703    1139     707     712
CTETRA      1788       1     705    1249    1247    1166
CTETRA      1789       1    1139    1645    1789     756
CTETRA      1790       1     445     708     705     450
CTETRA      1791       1    1641    1691    4786    4804
CTETRA      1792       1     708     705     450     805
CTETRA      1793       1     711     707    1142    1650
CTETRA      1794       1     707    1247     706     578
CTETRA      1795       1    1531    1757    1333    1106
CTETRA      1796       1    1790    1584    1571    1586
CTETRA      1797       1    1133    1791    1237     696
CTETRA      1798       1    1792    3956    3953    3954
CTETRA      1799       1    1793    1794     288    1795
CTETRA      1800       1    1793    1794    5711    5712
CTETRA      1801       1    1793    5600    1794    5712
CTETRA      1802       1    1796    1793     539    1797
CTETRA      1803       1    1793    5712    1796    1798
CTETRA      1804       1    1793    1799     288     539
CTETRA      1805       1    1793     287     288    1794
CTETRA      1806       1    1793     539     288     286
CTETRA      1807       1    1422    1551    1464    1800
CTETRA      1808       1    1422    1425    1801    1613
CTETRA      1809       1     972     996    1427     232
CTETRA      1810       1    1427    1426    1802     973
CTETRA      1811       1    1422    1427    1464     232
CTETRA      1812       1    1427    1426    1800    1802
CTETRA      1813       1    1427    1803     996    1804
CTETRA      1814       1    1422    1427    1800    1464
CTETRA      1815       1    1427    1803    1464     996
CTETRA      1816       1      99     100    1805     101
CTETRA      1817       1      99     888     106     108
CTETRA      1818       1     888    1806     889     890
CTETRA      1819       1      99    1807    1808    1805
CTETRA      1820       1    1809    5200     524    5198
CTETRA      1821       1     107    1805    1387    1807
CTETRA      1822       1    1810    1387     888     889
CTETRA      1823       1     888     889    1806    1810
CTETRA      1824       1     286    1811    1798     539
CTETRA      1825       1    4108    4064    4109    1812
CTETRA      1826       1    1355    4487    4565    4486
CTETRA      1827       1     539    1799     292     273
CTETRA      1828       1     528     293     539    1811
CTETRA      1829       1    1813    1814    3162    1783
CTETRA      1830       1    1799    1797    1793    1795
CTETRA      1831       1     539    1796     540    1798
CTETRA      1832       1     539     538    1796    1797
CTETRA      1833       1     748      49     359     464
CTETRA      1834       1     354      49     359      44
CTETRA      1835       1      49     465     464      48
CTETRA      1836       1     354     358     360    1815
CTETRA      1837       1    4563    1816    1817    4555
CTETRA      1838       1     355     466    1702     354
CTETRA      1839       1     354      50     355     466
CTETRA      1840       1    1766    1818    4147    4150
CTETRA      1841       1     824     827     826     825
CTETRA      1842       1    1446     825     826     827
CTETRA      1843       1    1584    1819    1572    1820
CTETRA      1844       1    1584    1574    1820    1821
CTETRA      1845       1    1813    3114    3162    3154
CTETRA      1846       1     541    1822    1458    1823
CTETRA      1847       1    1434     541    1581     371
CTETRA      1848       1     106      95     924     717
CTETRA      1849       1     636     860    1111     831
CTETRA      1850       1     636     640     690     635
CTETRA      1851       1     824     828     831     830
CTETRA      1852       1     824     860     827     825
CTETRA      1853       1     637    1692     829    1824
CTETRA      1854       1     462    1121    1825    1122
CTETRA      1855       1     637    1692    1826     353
CTETRA      1856       1     824     638     637     829
CTETRA      1857       1    1824     637    1692    1826
CTETRA      1858       1     527    1277     526    5197
CTETRA      1859       1    1600    1684    1827    1828
CTETRA      1860       1    1684    1829     975    1830
CTETRA      1861       1    1684    1831     418     975
CTETRA      1862       1    1684     418     696     980
CTETRA      1863       1    1684    1832    1600     980
CTETRA      1864       1    1684     975     980    1830
CTETRA      1865       1     876     887    1833      95
CTETRA      1866       1    1078    1321    1079    1080
CTETRA      1867       1    1762     224    1078    1743
CTETRA      1868       1    1473    3432    1145    5730
CTETRA      1869       1    1082    1077    1834    1080
CTETRA      1870       1     970    1835    1306    1304
CTETRA      1871       1    1077    1079    1078    1836
CTETRA      1872       1    1078    1837    1743    1183
CTETRA      1873       1    1743    1078    1762    1837
CTETRA      1874       1    1078    1080    1086    1763
CTETRA      1875       1    1838    1697    1079    1078
CTETRA      1876       1     341     346    1421      48
CTETRA      1877       1      43      46      48      45
CTETRA      1878       1     345     346    1839     344
CTETRA      1879       1    1839     345    1129     858
CTETRA      1880       1     341     343     346     344
CTETRA      1881       1     345     346      46     858
CTETRA      1882       1     346    1421    1840     343
CTETRA      1883       1    1276     845    1260    1277
CTETRA      1884       1     346    1840    1421      45
CTETRA      1885       1    1463     253    1460    1841
CTETRA      1886       1     253    1842    1841    1463
CTETRA      1887       1     253    1423    1842    1843
CTETRA      1888       1     253     218    1460    1841
CTETRA      1889       1     253    1423    1843     255
CTETRA      1890       1     222    1423     223    1841
CTETRA      1891       1    1423     253    1841     222
CTETRA      1892       1    1717     258     249     257
CTETRA      1893       1    1844    1717    1845     250
CTETRA      1894       1      16    1717     266    1845
CTETRA      1895       1      10      24      19      25
CTETRA      1896       1    1007     258    1846    1714
CTETRA      1897       1     625    1714     365     367
CTETRA      1898       1      16     625     201     266
CTETRA      1899       1    1845     266     249    1717
CTETRA      1900       1      24    1007    1717      19
CTETRA      1901       1      24    1717    1007    1714
CTETRA      1902       1     597    5593     315    1847
CTETRA      1903       1    1848    5595     597    1847
CTETRA      1904       1    1001     199    1000     197
CTETRA      1905       1    1000     190     193     200
CTETRA      1906       1     526    1277    5021    5197
CTETRA      1907       1     193     199    1849     192
CTETRA      1908       1     199    1850     192    1001
CTETRA      1909       1     199    1000     899     901
CTETRA      1910       1     199     901     899     900
CTETRA      1911       1    1851    1852    1853    1854
CTETRA      1912       1     938     884     267     940
CTETRA      1913       1     938     937     267     884
CTETRA      1914       1     267     937     279     884
CTETRA      1915       1     267     953     283     944
CTETRA      1916       1     267     273     279    1855
CTETRA      1917       1     934     937     936     279
CTETRA      1918       1      14    1856     210    1002
CTETRA      1919       1      15      16     202      14
CTETRA      1920       1     202     649    1857    1713
CTETRA      1921       1      15     212     313     885
CTETRA      1922       1     960     882     885     883
CTETRA      1923       1     883     884     940     960
CTETRA      1924       1     885    1858     940     883
CTETRA      1925       1    4364    4363    1709    1710
CTETRA      1926       1     938     937     883     939
CTETRA      1927       1     202      15     365      24
CTETRA      1928       1     641     212     209      11
CTETRA      1929       1     202     313    1713    1716
CTETRA      1930       1     201    1715     625     202
CTETRA      1931       1     212    1858     649    1713
CTETRA      1932       1    1671    1859    1860      88
CTETRA      1933       1      88    1859    1860     507
CTETRA      1934       1      74      87      80    1861
CTETRA      1935       1      80      74    1861      78
CTETRA      1936       1      88      78    1862    1863
CTETRA      1937       1      88      78    1863    1861
CTETRA      1938       1    1864    1865    1460    1461
CTETRA      1939       1    1864    1505     562    1866
CTETRA      1940       1     218    1864    1502    1867
CTETRA      1941       1    1709    4365    4367    4364
CTETRA      1942       1    1864    1841    1868    1463
CTETRA      1943       1    1502    1864     221    1868
CTETRA      1944       1    1864     221    1868    1841
CTETRA      1945       1    1520    1709    1869    1710
CTETRA      1946       1    1662    1171    1663     668
CTETRA      1947       1    1662    1663    5136    1417
CTETRA      1948       1    1502    1870    1369    1871
CTETRA      1949       1    1662    1872    1415    1873
CTETRA      1950       1    1432    1417    1663     668
CTETRA      1951       1    1432     783    1656    1874
CTETRA      1952       1    1855     936    1875    1317
CTETRA      1953       1    1317     279     936    1146
CTETRA      1954       1    1773     279    1320    1146
CTETRA      1955       1     237    5138    1876    5137
CTETRA      1956       1    1317    1855     585    1875
CTETRA      1957       1    5145     211    1877    5148
CTETRA      1958       1    1320    1855     585    1317
CTETRA      1959       1     183    1011     180    1878
CTETRA      1960       1    1012     559    1749    1748
CTETRA      1961       1     183     559    1012     594
CTETRA      1962       1    1012     437     438    1879
CTETRA      1963       1    1879    1751     594    1012
CTETRA      1964       1    1392    1394      32    1731
CTETRA      1965       1    1392    1731    1006    1394
CTETRA      1966       1    1392    1394    1006    1393
CTETRA      1967       1     328    1605     325    1606
CTETRA      1968       1    1605    1708     325    1606
CTETRA      1969       1    1606     328     317     325
CTETRA      1970       1    1606    1605    1708    1690
CTETRA      1971       1    1606    1511     325     319
CTETRA      1972       1    1606     514     518     516
CTETRA      1973       1    1606     514    1512     319
CTETRA      1974       1     468    1321    1315     470
CTETRA      1975       1     468     474     749     464
CTETRA      1976       1     417     474     469     415
CTETRA      1977       1     414     474     417     415
CTETRA      1978       1     749    1697    1880     468
CTETRA      1979       1     417      23     468     474
CTETRA      1980       1     955     989    1881     991
CTETRA      1981       1       4     181     180     991
CTETRA      1982       1       4     128       3     181
CTETRA      1983       1     955     989     128     962
CTETRA      1984       1     268     181     955     961
CTETRA      1985       1    1183    1078    1086    1743
CTETRA      1986       1    1882    4720    4718    4719
CTETRA      1987       1    1077    1078    1086    1085
CTETRA      1988       1    1080    1834    1700    1079
CTETRA      1989       1     220    1763     219     224
CTETRA      1990       1     224    1763    1078    1743
CTETRA      1991       1     237    5137    1663    5146
CTETRA      1992       1    1077    1079    1836    1883
CTETRA      1993       1    1077    1086    1080    1081
CTETRA      1994       1    1884    4203    4213    4214
CTETRA      1995       1    1080    1885    1082    1081
CTETRA      1996       1     699     973     972     996
CTETRA      1997       1     420     228     995    1314
CTETRA      1998       1     199    1849     192    1850
CTETRA      1999       1     192    1001    1850    1264
CTETRA      2000       1     190     197     192     189
CTETRA      2001       1     193     192    1886     191
CTETRA      2002       1     237    1874    5146    1663
CTETRA      2003       1     199     192     197    1001
CTETRA      2004       1     430    3538    3531    3533
CTETRA      2005       1    1887     171     661    1566
CTETRA      2006       1     742     682     676     986
CTETRA      2007       1     987     362     680    1097
CTETRA      2008       1     173     661    1888     165
CTETRA      2009       1    1889     950    1577    5362
CTETRA      2010       1     662     170     742     660
CTETRA      2011       1     742     170     390    1890
CTETRA      2012       1     742     849     741    1891
CTETRA      2013       1     983     390    1892    1891
CTETRA      2014       1     390     742    1891     983
CTETRA      2015       1     742     170     986     983
CTETRA      2016       1    1891     390    1892    1893
CTETRA      2017       1    1071    1068    1894    1158
CTETRA      2018       1    1071    1072    1073     912
CTETRA      2019       1    1071    1895    1072     912
CTETRA      2020       1    1071    1068    1158     912
CTETRA      2021       1     377    1173     380    1175
CTETRA      2022       1     376    1173    1402    1588
CTETRA      2023       1     376    1435     381    1588
CTETRA      2024       1     378     376    1435     381
CTETRA      2025       1      90     381     371     380
CTETRA      2026       1      97     371     380      90
CTETRA      2027       1      92     717      94      95
CTETRA      2028       1     376     380    1173     381
CTETRA      2029       1     219    1314    1316     221
CTETRA      2030       1     224     217     219     220
CTETRA      2031       1    1735     224     225    1742
CTETRA      2032       1    1736    1763     220     225
CTETRA      2033       1     544    3944    3951    3975
CTETRA      2034       1    1314     224     217     219
CTETRA      2035       1     220    1896     225     229
CTETRA      2036       1     220     225    1896    1736
CTETRA      2037       1     963    1897    1898    1899
CTETRA      2038       1    1900     220    1899    1896
CTETRA      2039       1     218    1502    1864     221
CTETRA      2040       1    1901    3934    3935    3927
CTETRA      2041       1     673    1017    1032    1902
CTETRA      2042       1    1033    1903     498    1171
CTETRA      2043       1    1032     670     668     834
CTETRA      2044       1     668    1033    1432    1655
CTETRA      2045       1    1033    1663    1432    1658
CTETRA      2046       1    1033    1171    1663    1903
CTETRA      2047       1    1033    1658    1904    1905
CTETRA      2048       1     607    1906     608     614
CTETRA      2049       1     607    1907     871    1521
CTETRA      2050       1     607     613    1519     614
CTETRA      2051       1     608    1851    1906    1908
CTETRA      2052       1    1171     486     496     498
CTETRA      2053       1     496    1343     497     489
CTETRA      2054       1     496    1574    1909    1819
CTETRA      2055       1     496     498    1903    1171
CTETRA      2056       1     497     498    1584     496
CTETRA      2057       1     496    1903     498    1819
CTETRA      2058       1     317     327     278     324
CTETRA      2059       1     278     934     584    1855
CTETRA      2060       1     521     514    1910     515
CTETRA      2061       1     140    1911    1912    1913
CTETRA      2062       1    3402     664    1914    5296
CTETRA      2063       1     328    1913    1915    1912
CTETRA      2064       1     327     328     944     324
CTETRA      2065       1     329     935     328      67
CTETRA      2066       1    1237    1916    1791    1333
CTETRA      2067       1    1237    1916     696    1791
CTETRA      2068       1     414    1134     696     697
CTETRA      2069       1    1215    1220    1217    1216
CTETRA      2070       1    1237    1333    1791    1106
CTETRA      2071       1     414     696    1236     418
CTETRA      2072       1    1133    1217    1219    1220
CTETRA      2073       1    1219    1237      58    1214
CTETRA      2074       1     745    1722    1544     738
CTETRA      2075       1     689     767     691     688
CTETRA      2076       1     745    1917     454     455
CTETRA      2077       1     767     777     688     779
CTETRA      2078       1     745     455     778    1917
CTETRA      2079       1     455    1918     737     777
CTETRA      2080       1     854      52    1919     778
CTETRA      2081       1     183    1013     559     565
CTETRA      2082       1      31      32     559     565
CTETRA      2083       1     559     560    1751     561
CTETRA      2084       1      32     594     561     559
CTETRA      2085       1     559    1749     560     557
CTETRA      2086       1    1751    1272     560    1748
CTETRA      2087       1    1622    5583    1920    1362
CTETRA      2088       1    1921    3942    3957    3955
CTETRA      2089       1    1622    1362    1357    5583
CTETRA      2090       1     927    3942    3941    3957
CTETRA      2091       1     294    1621    1922    1620
CTETRA      2092       1     285     287    1621    1620
CTETRA      2093       1     285    1923     287    1362
CTETRA      2094       1    1924    4786    1693    1691
CTETRA      2095       1     285    1622    1356    1623
CTETRA      2096       1    1925    1926    1786    1356
CTETRA      2097       1    1925    1927    1928    1929
CTETRA      2098       1    1925    1623    1930    1356
CTETRA      2099       1    1929    1925    1930    1928
CTETRA      2100       1    1925    1930    1928    1931
CTETRA      2101       1    1133    1106    1237    1791
CTETRA      2102       1    1102    1106    1231    1104
CTETRA      2103       1    1102    1932    1231    1220
CTETRA      2104       1    1231    1933    1234     215
CTETRA      2105       1    1165     305     304     549
CTETRA      2106       1    1164     302    1167    1165
CTETRA      2107       1     302     757    1167     766
CTETRA      2108       1      62     549    1165     304
CTETRA      2109       1    1167     304    1009    1165
CTETRA      2110       1     424    1934     818     817
CTETRA      2111       1    1165    1166    1142    1009
CTETRA      2112       1    1167     766     308     302
CTETRA      2113       1    1935     954     960    1404
CTETRA      2114       1    1404     953     960     940
CTETRA      2115       1    1163    1640    1936    1010
CTETRA      2116       1    1404    1937     940    1935
CTETRA      2117       1    1404     940    1937    1938
CTETRA      2118       1     940     944     945    1404
CTETRA      2119       1     842     617    5297    5291
CTETRA      2120       1    1404    1405    4838    1939
CTETRA      2121       1     285     295    1358    1359
CTETRA      2122       1     291     433    1940    1527
CTETRA      2123       1     291     433    1527    1941
CTETRA      2124       1       9       1     126       8
CTETRA      2125       1     281       3     280    1942
CTETRA      2126       1     128     955     181       4
CTETRA      2127       1       3    1942     181     282
CTETRA      2128       1    1201    1943    1156     812
CTETRA      2129       1     807     808     114    1721
CTETRA      2130       1    1156     746    1211    1944
CTETRA      2131       1    1156    1944    1201     746
CTETRA      2132       1    1945    1388    1946    1947
CTETRA      2133       1     114    1156     746    1211
CTETRA      2134       1    1943    1156    1944    1201
CTETRA      2135       1     445    1138     246     449
CTETRA      2136       1     240     238     756    1139
CTETRA      2137       1    1164    1249     240    1138
CTETRA      2138       1     626    5060    5072    5073
CTETRA      2139       1     703     712    1137    1139
CTETRA      2140       1      27     558      37      40
CTETRA      2141       1    3646    1025    1026    1948
CTETRA      2142       1    1730     594     561      32
CTETRA      2143       1      31     559     560     557
CTETRA      2144       1      27      39     558      38
CTETRA      2145       1    1749    1748     559     560
CTETRA      2146       1      41     564      31     560
CTETRA      2147       1     181     182    1949     184
CTETRA      2148       1     178       4     181     180
CTETRA      2149       1     181     991     182     180
CTETRA      2150       1     178     181     182     180
CTETRA      2151       1    1944    1950    1951    1952
CTETRA      2152       1    1046    1047      87    1953
CTETRA      2153       1    1046    1058    1048     947
CTETRA      2154       1    1051     952    1953     788
CTETRA      2155       1    1051     952    1048    1953
CTETRA      2156       1     727     391    1954    1539
CTETRA      2157       1     850     731     339     727
CTETRA      2158       1    1955     727    1199     339
CTETRA      2159       1     729     728    1956     732
CTETRA      2160       1     724     727     728     731
CTETRA      2161       1     148    1957     727     729
CTETRA      2162       1     636     862     687    1311
CTETRA      2163       1     636     860     825    1311
CTETRA      2164       1     636     637     634     825
CTETRA      2165       1    1958    1959    1960     629
CTETRA      2166       1     636     635     631     640
CTETRA      2167       1     629    1259    1677    1860
CTETRA      2168       1     825    1443     826     353
CTETRA      2169       1     353     825     824     826
CTETRA      2170       1     634    1259    1443    1258
CTETRA      2171       1     164     397     398     396
CTETRA      2172       1    1152    5038    5037    5089
CTETRA      2173       1     396     166     535     167
CTETRA      2174       1     166     396     535     903
CTETRA      2175       1    1386    1961    4805    4809
CTETRA      2176       1    1370    1962    1963    1386
CTETRA      2177       1     481    1295    1275    1344
CTETRA      2178       1     487     481     332    1570
CTETRA      2179       1    3608    1964    1965    3609
CTETRA      2180       1     331     332     334     337
CTETRA      2181       1     481    1275    1295     333
CTETRA      2182       1    1428    1186     669     571
CTETRA      2183       1    1552     669    1186     571
CTETRA      2184       1    1186     235    1459    1185
CTETRA      2185       1     236     235    1186    1185
CTETRA      2186       1     917     577     968    1609
CTETRA      2187       1    1165     549    1142    1643
CTETRA      2188       1      60      62     546      63
CTETRA      2189       1      57    1609    1634     877
CTETRA      2190       1     917    1142     711    1143
CTETRA      2191       1     711    1650    1617     710
CTETRA      2192       1     917      63     918    1609
CTETRA      2193       1     111     114     112    1270
CTETRA      2194       1    1272     808    1753    1274
CTETRA      2195       1     808     680    1753     809
CTETRA      2196       1     808     111    1274    1271
CTETRA      2197       1    1962    1963    1386    1966
CTETRA      2198       1     812     677     807    1198
CTETRA      2199       1    1967    4821    1371    4819
CTETRA      2200       1     142     746     138    1201
CTETRA      2201       1     463    1968     746    1944
CTETRA      2202       1     137     461     143     147
CTETRA      2203       1     216    4594    4611    4595
CTETRA      2204       1    1969    4207    1970    3719
CTETRA      2205       1     138    1201    1971    1972
CTETRA      2206       1     739    1971     138     746
CTETRA      2207       1     137     138     463     454
CTETRA      2208       1    1209    3357    3356    3650
CTETRA      2209       1    1972    1200     145     138
CTETRA      2210       1     427    1091     734     782
CTETRA      2211       1     787     734      39    1113
CTETRA      2212       1    1641    5327    4803    5877
CTETRA      2213       1    1973    5834    5308    5833
CTETRA      2214       1     734     733    1119    1974
CTETRA      2215       1     780    1091     782     734
CTETRA      2216       1     734    1091    1163     124
CTETRA      2217       1    1221    1207      37     734
CTETRA      2218       1     734      38    1119     733
CTETRA      2219       1    1975    1386    4805    4818
CTETRA      2220       1      38     558     734      39
CTETRA      2221       1    1976     461    1977     142
CTETRA      2222       1    1976    1978     457    1979
CTETRA      2223       1    1976     462    1980     461
CTETRA      2224       1    1976    1979     457     463
CTETRA      2225       1    1978     462    1980    1976
CTETRA      2226       1     344     345    1129    1839
CTETRA      2227       1     345     458     459     858
CTETRA      2228       1     345     859     458     858
CTETRA      2229       1     208    1474      12     282
CTETRA      2230       1    1386    1372    4806    4819
CTETRA      2231       1     282    1981    1982     882
CTETRA      2232       1     282     884     882     960
CTETRA      2233       1     282      12     884     279
CTETRA      2234       1     268     884     267     282
CTETRA      2235       1      57    1609     880    1607
CTETRA      2236       1     968    1351    1608    1732
CTETRA      2237       1     968    1609    1608    1607
CTETRA      2238       1     880      57      55      63
CTETRA      2239       1     968    1617    1609    1607
CTETRA      2240       1     964     711     578     577
CTETRA      2241       1     968     711    1617     969
CTETRA      2242       1      54      57    1535    1614
CTETRA      2243       1      57    1756    1535    1100
CTETRA      2244       1      57    1608    1634    1609
CTETRA      2245       1    5416    5688    5689    3327
CTETRA      2246       1    1964    3601    3609    3608
CTETRA      2247       1    1920    5559    5582    5583
CTETRA      2248       1    1983    1609    1634    1732
CTETRA      2249       1    1371    1386    4819    1372
CTETRA      2250       1    1984    1330    1985    1986
CTETRA      2251       1     236     836    1987     447
CTETRA      2252       1    1987     447    1176     236
CTETRA      2253       1     836     834     839    1415
CTETRA      2254       1    1988     836    1379     837
CTETRA      2255       1    1989     837     836     447
CTETRA      2256       1     447    1989     236     836
CTETRA      2257       1     832     836     839     837
CTETRA      2258       1    1552     836    1379    1184
CTETRA      2259       1    1990     231    1896     229
CTETRA      2260       1     225     231     230     229
CTETRA      2261       1    1991    1992    1993    3267
CTETRA      2262       1     217     220     225     229
CTETRA      2263       1    1994    3461     982    1995
CTETRA      2264       1     220    1736    1898    1763
CTETRA      2265       1    1874    5144    5145    5146
CTETRA      2266       1     225    1896    1738     231
CTETRA      2267       1    1735     225    1738    1742
CTETRA      2268       1     680     677     815     679
CTETRA      2269       1     987    1269     680     362
CTETRA      2270       1     816    1092    1272    1097
CTETRA      2271       1     676     680     678     686
CTETRA      2272       1     680     808     677     809
CTETRA      2273       1     677     809     678     680
CTETRA      2274       1     122     770    1544    1212
CTETRA      2275       1     560    1748     559    1751
CTETRA      2276       1      24    1007    1846    1714
CTETRA      2277       1     442    3629    3654    3653
CTETRA      2278       1      24      16     202      15
CTETRA      2279       1    1007    1731    1981    1996
CTETRA      2280       1     257    1997    1007    1846
CTETRA      2281       1    1007    1998    1731    1006
CTETRA      2282       1     132     130     129     284
CTETRA      2283       1     316    1940    5728    1528
CTETRA      2284       1    1940    5728    1528    1772
CTETRA      2285       1    1999    3933     927    2000
CTETRA      2286       1    5730    1147    5729    1940
CTETRA      2287       1    1772    1940    5728    5729
CTETRA      2288       1    1772    1147    5729    1148
CTETRA      2289       1     185    1942     281    1760
CTETRA      2290       1    4028     567     580    4032
CTETRA      2291       1     281     280    1147    1148
CTETRA      2292       1     815     677     807     812
CTETRA      2293       1     815     807     808     819
CTETRA      2294       1     333     331     731     332
CTETRA      2295       1     813     811     812     815
CTETRA      2296       1    5140    1417    5136    5146
CTETRA      2297       1     677     679     681     813
CTETRA      2298       1     336     850    1150     677
CTETRA      2299       1     681     676     677     336
CTETRA      2300       1     512     123    1213    1212
CTETRA      2301       1     118    1091     119    1640
CTETRA      2302       1     695    1213    1212     770
CTETRA      2303       1     512      76     511     823
CTETRA      2304       1     118     512      76     505
CTETRA      2305       1     770     508     512     510
CTETRA      2306       1      75     508     512     511
CTETRA      2307       1     561     593     594    1730
CTETRA      2308       1    1999     927    3941    3957
CTETRA      2309       1     594    1878      32    1730
CTETRA      2310       1    1730    1878      32    2001
CTETRA      2311       1     593    2002    2003    2001
CTETRA      2312       1    2004    1993    2005    3268
CTETRA      2313       1     593    2006    1730    2007
CTETRA      2314       1     593    2006    2002    1730
CTETRA      2315       1       9       5     870     657
CTETRA      2316       1     868       5     408    2008
CTETRA      2317       1     267     953     867     283
CTETRA      2318       1     132     278     129     283
CTETRA      2319       1     867     283     131     129
CTETRA      2320       1     867     129     131     128
CTETRA      2321       1     132     284     318    1712
CTETRA      2322       1     283     131     129     132
CTETRA      2323       1     186     188    1429    1656
CTETRA      2324       1     967    2009    1195    1128
CTETRA      2325       1     967    1667    1666    1195
CTETRA      2326       1     967    2009    1667    1195
CTETRA      2327       1     659    1275    2010    2011
CTETRA      2328       1     682     659     662     660
CTETRA      2329       1     682     335    1275    1278
CTETRA      2330       1     682     659    1278    1275
CTETRA      2331       1     659    1340    1275    1509
CTETRA      2332       1     659     660    1278     658
CTETRA      2333       1     751    2012     750    1840
CTETRA      2334       1     751    3477    2013    2014
CTETRA      2335       1     751    2015    2016    3477
CTETRA      2336       1    1420    2013    2014     751
CTETRA      2337       1     747     751     753     749
CTETRA      2338       1     751    2013     753     749
CTETRA      2339       1     414      21     417      23
CTETRA      2340       1     747     474     749     753
CTETRA      2341       1     468     749     474      23
CTETRA      2342       1     474    1933    1232     753
CTETRA      2343       1     474    1235    2017     415
CTETRA      2344       1     414    1133    1236     696
CTETRA      2345       1    1992    3271    3261    3262
CTETRA      2346       1     636     635     687     862
CTETRA      2347       1     689     635     690     640
CTETRA      2348       1    1108     690     692    1110
CTETRA      2349       1     688    1110     175     692
CTETRA      2350       1     689     767     508     770
CTETRA      2351       1     767     508     510    1543
CTETRA      2352       1    1240    1110      52     688
CTETRA      2353       1     687    1310     688    1240
CTETRA      2354       1     689     687     635     508
CTETRA      2355       1    1543    1310     688     508
CTETRA      2356       1    1993    1992    3271    3267
CTETRA      2357       1     219    1080    1870    1321
CTETRA      2358       1    1773     281    1147     292
CTETRA      2359       1     291     433     292    1940
CTETRA      2360       1     289     295       9     433
CTETRA      2361       1     292    1773    1799    2018
CTETRA      2362       1       8       7       3     281
CTETRA      2363       1    2019    5062    5059    5063
CTETRA      2364       1     539     273     538    1799
CTETRA      2365       1     289     433     291     295
CTETRA      2366       1    1775     483     957     523
CTETRA      2367       1     358     828     360    1815
CTETRA      2368       1    1307    1836    1838     360
CTETRA      2369       1    2020     828    1308     860
CTETRA      2370       1     828    1308     860    1239
CTETRA      2371       1    1834     350    1082    2021
CTETRA      2372       1    1080    1369    1834    1885
CTETRA      2373       1    1080    1700    1834    1369
CTETRA      2374       1    1082    1077    1883    1834
CTETRA      2375       1    1834    1079    1703    1700
CTETRA      2376       1    1834    1079    1883    2022
CTETRA      2377       1    1834    1079    2022    1703
CTETRA      2378       1     148     391     727    1539
CTETRA      2379       1     728    1332    1330    1984
CTETRA      2380       1     834     835     832     486
CTETRA      2381       1    1014    1016    1902    1017
CTETRA      2382       1     835    1170     834    1379
CTETRA      2383       1    1032     670    1170    1029
CTETRA      2384       1     486    1171    2023    1664
CTETRA      2385       1    1014    1042    1035    1034
CTETRA      2386       1    1552     670    1170     834
CTETRA      2387       1     487    1568     488    1694
CTETRA      2388       1    1552    1379    1170    1555
CTETRA      2389       1     657    2024     941     870
CTETRA      2390       1    2024     295     870     657
CTETRA      2391       1     403    2024     941     657
CTETRA      2392       1    2024    2025    1359    2026
CTETRA      2393       1    2024     942     657     403
CTETRA      2394       1    2027    2028     899    2029
CTETRA      2395       1    5720     941    2025    1358
CTETRA      2396       1     289     293     288     292
CTETRA      2397       1       7     433     870     869
CTETRA      2398       1       8    1773     281     280
CTETRA      2399       1     434     404    2008     438
CTETRA      2400       1     406     405    1479    1262
CTETRA      2401       1       5     657     405     408
CTETRA      2402       1     407     405     657     403
CTETRA      2403       1    1386    4806    1966    4809
CTETRA      2404       1    2030     319    1906     530
CTETRA      2405       1     319     284     530    2030
CTETRA      2406       1     127     530     540     284
CTETRA      2407       1     607     613     608    2031
CTETRA      2408       1     530     319     872     540
CTETRA      2409       1    1504    1371    2032    1503
CTETRA      2410       1     892    2033    2034     893
CTETRA      2411       1     892    1775     893    2034
CTETRA      2412       1     159     161     896     894
CTETRA      2413       1     151     898    2035    2036
CTETRA      2414       1     894     896     159     151
CTETRA      2415       1     894     893    2037    1992
CTETRA      2416       1     329     328     518      67
CTETRA      2417       1     513     520     515      69
CTETRA      2418       1    1606    1708    1710    1690
CTETRA      2419       1    2038    4802    1961    2039
CTETRA      2420       1    2040    5061    3277    3266
CTETRA      2421       1    2041     516     520     515
CTETRA      2422       1     514     516    1512    2041
CTETRA      2423       1    1623    1929    1925    1930
CTETRA      2424       1    1928     312    1090    2042
CTETRA      2425       1    1090    1931    5565    2043
CTETRA      2426       1    1928    1929    2044    1930
CTETRA      2427       1    1778    1776    1782     550
CTETRA      2428       1    1487    1777    1494    2045
CTETRA      2429       1    5493    1776    5516    5492
CTETRA      2430       1    1777    1493    1487     551
CTETRA      2431       1     551    1777    5491    5468
CTETRA      2432       1     551    1467     550     552
CTETRA      2433       1    1494     551    5470    5469
CTETRA      2434       1    1776     550     551    1467
CTETRA      2435       1    1776    1781    1782    1467
CTETRA      2436       1     435     983     172     388
CTETRA      2437       1     172     435     986     983
CTETRA      2438       1     434     167     984     164
CTETRA      2439       1     434     404     398    2008
CTETRA      2440       1     434     441     438    2008
CTETRA      2441       1    1012     437    1879    1748
CTETRA      2442       1     437    1879     439     438
CTETRA      2443       1     434     437     439     438
CTETRA      2444       1    2046     437    1879     439
CTETRA      2445       1    1239     360    1307     359
CTETRA      2446       1     354     464     360     359
CTETRA      2447       1     359      49     354     464
CTETRA      2448       1    1697    1880    1762    1838
CTETRA      2449       1     637     829    1692     824
CTETRA      2450       1     464      49     354     466
CTETRA      2451       1    1697     464     749    1698
CTETRA      2452       1     828     360    2022    1079
CTETRA      2453       1     360    1079    1703    2022
CTETRA      2454       1    1079    1697    1702    1700
CTETRA      2455       1     212     643    1858     939
CTETRA      2456       1     643    1858    2047    2048
CTETRA      2457       1     643     649    2048    2049
CTETRA      2458       1     939     643    1858    2047
CTETRA      2459       1     643     649    2049     648
CTETRA      2460       1     643    2050     939     644
CTETRA      2461       1     641     644     647     642
CTETRA      2462       1     643    2051     939    2050
CTETRA      2463       1     643    2047     939    2051
CTETRA      2464       1     480    1275    1342    1344
CTETRA      2465       1    2052    1578    1205    1575
CTETRA      2466       1    1575    1578    1561    1557
CTETRA      2467       1    2038    2039    1691    4804
CTETRA      2468       1    1342    1509    1560    2053
CTETRA      2469       1    1342    2011    1509    2053
CTETRA      2470       1    1342    1275    1340    1509
CTETRA      2471       1    1342    1579    1509    1340
CTETRA      2472       1    1579    1342    1509    1578
CTETRA      2473       1     130     134    1711     988
CTETRA      2474       1    2054    2055    4944    2056
CTETRA      2475       1    2057    1711    2056    2055
CTETRA      2476       1    2038    2039    4804    4802
CTETRA      2477       1     130    1711    1712     131
CTETRA      2478       1    1711    1712    2058    1303
CTETRA      2479       1    1711     656     130    1303
CTETRA      2480       1    1711    2056     656    1303
CTETRA      2481       1     396     406    1765     903
CTETRA      2482       1     895     402     903     901
CTETRA      2483       1     903     399     397     396
CTETRA      2484       1    1698     464     749     359
CTETRA      2485       1     360     359     464    1698
CTETRA      2486       1    1697    1702     470     466
CTETRA      2487       1      49      48    1347     465
CTETRA      2488       1      45      49     748      48
CTETRA      2489       1    1789    2059    2060     789
CTETRA      2490       1    2059    2061     276     277
CTETRA      2491       1    2060    2062    2063    2059
CTETRA      2492       1    3827    2060    2062    2063
CTETRA      2493       1    2059    2063     276    2061
CTETRA      2494       1    2059    2064    1227    1789
CTETRA      2495       1    2059     277    1227    2065
CTETRA      2496       1     682    2010    1275     846
CTETRA      2497       1    1275    1295     333     846
CTETRA      2498       1     470    1870    2066    2067
CTETRA      2499       1     659    2011    2010    1566
CTETRA      2500       1     331     332     337     731
CTETRA      2501       1     659    1275    2011    1509
CTETRA      2502       1     334    1341     480    1275
CTETRA      2503       1    1341    1275    1342     480
CTETRA      2504       1    2068    1559    2069    2070
CTETRA      2505       1    2070    2068    1561     814
CTETRA      2506       1    2068    1559    1561    1558
CTETRA      2507       1    1849    2071    1438    2072
CTETRA      2508       1    2068    2073    2074    2075
CTETRA      2509       1    1860     634     507     629
CTETRA      2510       1    1259    1258    2076    2077
CTETRA      2511       1    1259    1443    2077    1208
CTETRA      2512       1    1259    2078    1443    1208
CTETRA      2513       1     629    1259    1860     634
CTETRA      2514       1    2079      55      35      33
CTETRA      2515       1      33      35    2079    2080
CTETRA      2516       1      64      65     878      70
CTETRA      2517       1    2072    1437    4315    4318
CTETRA      2518       1    2081    5166    5176    5167
CTETRA      2519       1      61      65      62     382
CTETRA      2520       1      55     881    2079      56
CTETRA      2521       1     547      33      71      60
CTETRA      2522       1     410    5176    5184    5187
CTETRA      2523       1     548      33      71     547
CTETRA      2524       1      34      64      71      33
CTETRA      2525       1      33     881    2079      55
CTETRA      2526       1    2082    5059    5070    5072
CTETRA      2527       1      55      57    1614    1634
CTETRA      2528       1    1668    4301    4320    2072
CTETRA      2529       1     106     888     875     108
CTETRA      2530       1     106     717      92      95
CTETRA      2531       1     887    1451     886    2083
CTETRA      2532       1     887      95    1554    1833
CTETRA      2533       1     875     887     886    2084
CTETRA      2534       1      95     379     887     372
CTETRA      2535       1    2085    1397     604    2086
CTETRA      2536       1     599    1397     604     611
CTETRA      2537       1     604    2085    1297     611
CTETRA      2538       1    2086    2085    1297     604
CTETRA      2539       1    1397    2087    2088    2089
CTETRA      2540       1    1397     611    1398    2087
CTETRA      2541       1      88    1056      87    1861
CTETRA      2542       1      74      77      88      78
CTETRA      2543       1    1508    1921     532    1228
CTETRA      2544       1      74      77      76    2090
CTETRA      2545       1      81    1639    1640      80
CTETRA      2546       1    1639      80     426    1640
CTETRA      2547       1      81     785      87     822
CTETRA      2548       1      74      87      77    2090
CTETRA      2549       1      74      82      81      76
CTETRA      2550       1      87    1671      77    2090
CTETRA      2551       1      87     822    1953    1047
CTETRA      2552       1      87      81     822    2090
CTETRA      2553       1    1089    2091    2092    2093
CTETRA      2554       1    1849    1850    2094    2095
CTETRA      2555       1    2093    2091    1927    1089
CTETRA      2556       1    2093    2091    2096    1927
CTETRA      2557       1    2093    1488    2092    2097
CTETRA      2558       1    2093    2098    2096    2099
CTETRA      2559       1    2093    2098    2100    2096
CTETRA      2560       1    1007      19    1468    1844
CTETRA      2561       1      24    1981    1007    1475
CTETRA      2562       1     202     313     367     365
CTETRA      2563       1      24    1981     208     365
CTETRA      2564       1      16    1845     266    1203
CTETRA      2565       1     257     258    1846    1007
CTETRA      2566       1    2101    2102     431     432
CTETRA      2567       1    2103    3297    2104    2105
CTETRA      2568       1    2101    2106     231    2107
CTETRA      2569       1    2101    2107     231    1547
CTETRA      2570       1    2101    2102     432    1889
CTETRA      2571       1     948    2101    1889    1498
CTETRA      2572       1     894     161     896     931
CTETRA      2573       1     231    1498    1424    1889
CTETRA      2574       1    2101    1896    2106    2102
CTETRA      2575       1    2101    2102    1990    1896
CTETRA      2576       1     900     901    1059     199
CTETRA      2577       1     401     400    1000     402
CTETRA      2578       1     196     401    1000     197
CTETRA      2579       1    1001    1061     901    1059
CTETRA      2580       1    1001     402     901     903
CTETRA      2581       1    1001     199    1850    1059
CTETRA      2582       1     325     328     317     324
CTETRA      2583       1     328     935     934     944
CTETRA      2584       1     328     935    1911      67
CTETRA      2585       1     935     644    1875     936
CTETRA      2586       1     937     935     936     644
CTETRA      2587       1     644     938     937     935
CTETRA      2588       1     935    1913     944     328
CTETRA      2589       1     935     946    1911    2050
CTETRA      2590       1    2108    5683    5682    3303
CTETRA      2591       1    1911     328    1913     935
CTETRA      2592       1     641     643     212     939
CTETRA      2593       1    1323      11      13      12
CTETRA      2594       1    1323     655     646    2109
CTETRA      2595       1     937      12     279     884
CTETRA      2596       1    1858    2110     885    1937
CTETRA      2597       1    2111    1713    2112    2048
CTETRA      2598       1    2048    2111    1713    1858
CTETRA      2599       1    1858    1713     885    2110
CTETRA      2600       1     643     649    1858    2048
CTETRA      2601       1    1858     649    1713    2048
CTETRA      2602       1      88      87    1056    1671
CTETRA      2603       1    2072    1682    1668    4301
CTETRA      2604       1      88    1860    1862     507
CTETRA      2605       1      74      76      75      79
CTETRA      2606       1      77     511      76    2090
CTETRA      2607       1     894     151     159    2036
CTETRA      2608       1       5     408     405     868
CTETRA      2609       1     291    1527    1940    1623
CTETRA      2610       1     433    1941     295     870
CTETRA      2611       1     433     869    1528    1526
CTETRA      2612       1     869    1281    1526    2113
CTETRA      2613       1     433     870     869    1526
CTETRA      2614       1     185     281     433    1528
CTETRA      2615       1       7     869     185     433
CTETRA      2616       1     210    5306    2114    5836
CTETRA      2617       1    2115    1520    1512     871
CTETRA      2618       1    1520    1512     871    1511
CTETRA      2619       1    1641    5327    5877    5322
CTETRA      2620       1    1511    1851     614    1520
CTETRA      2621       1    1512    1520    1708    1511
CTETRA      2622       1    1716    1715    2116    1857
CTETRA      2623       1    1511     325    1851    1708
CTETRA      2624       1      27      28      40      37
CTETRA      2625       1    1091     427    1207    1640
CTETRA      2626       1    1091    1163    1640    1207
CTETRA      2627       1    1639     427    1091    1640
CTETRA      2628       1     782     251     786     257
CTETRA      2629       1    1091     124     119    1163
CTETRA      2630       1    1697    1880     468    1699
CTETRA      2631       1      17      18    1202    2117
CTETRA      2632       1      43      49      47      50
CTETRA      2633       1     467     474    2017     469
CTETRA      2634       1     470    1702     355     466
CTETRA      2635       1     470     471     473    2118
CTETRA      2636       1    2119     473     470    2120
CTETRA      2637       1     470    2118    1315     469
CTETRA      2638       1     479     481     480    1569
CTETRA      2639       1    2011    1344    1342    1275
CTETRA      2640       1     659    1278    1275    1340
CTETRA      2641       1     150     155     156     896
CTETRA      2642       1    1575    1578    1557    1342
CTETRA      2643       1     155     157    2052    1578
CTETRA      2644       1     182    1878     180     991
CTETRA      2645       1     178     181    1942     184
CTETRA      2646       1    1392     182      32     565
CTETRA      2647       1     183     180     182    1878
CTETRA      2648       1    1298    1333    1832    1683
CTETRA      2649       1    1237    1214    1219    1685
CTETRA      2650       1    1916    2121    1791    2122
CTETRA      2651       1    2121    2123    2124    1916
CTETRA      2652       1    1916     696    2121    2123
CTETRA      2653       1    1832    1333    1335    1916
CTETRA      2654       1    1334    1832    1333    1335
CTETRA      2655       1    1135    1956     393     392
CTETRA      2656       1     392    1956     393     391
CTETRA      2657       1     146     391     393     394
CTETRA      2658       1     136     139    2125     501
CTETRA      2659       1     146     147     148     394
CTETRA      2660       1     331     731     337     339
CTETRA      2661       1     846     847    1289     333
CTETRA      2662       1     332     333    1289     731
CTETRA      2663       1     481    1275     333     334
CTETRA      2664       1     333     682     685     335
CTETRA      2665       1     332    1289    1295     272
CTETRA      2666       1      11      18    1945     207
CTETRA      2667       1    1715    5308    1857    5307
CTETRA      2668       1     603     611    1297    1302
CTETRA      2669       1     194     198    1296    2126
CTETRA      2670       1     611    1397     604    2085
CTETRA      2671       1     190     604     191     194
CTETRA      2672       1     604     194    2126    2086
CTETRA      2673       1     183    1012    1011     594
CTETRA      2674       1     180     438     992    1011
CTETRA      2675       1       4     868     135     992
CTETRA      2676       1    3438    3283    3455    5626
CTETRA      2677       1     763     762    2127     764
CTETRA      2678       1     517    4392    4400    4393
CTETRA      2679       1    2109    3423    3365    3364
CTETRA      2680       1     183     438    1012    1013
CTETRA      2681       1     183     438     180    1011
CTETRA      2682       1     182    1996    1731    2001
CTETRA      2683       1     178       7     185    1942
CTETRA      2684       1    1982     282     961     181
CTETRA      2685       1     199    1436    1000     193
CTETRA      2686       1     199    1000     190     193
CTETRA      2687       1     895     402    1000    1775
CTETRA      2688       1     199     899    1000    1436
CTETRA      2689       1     402     401    1001    1000
CTETRA      2690       1    1000     200     957     196
CTETRA      2691       1    1023    1024    2128     380
CTETRA      2692       1    1023    1022     541    1823
CTETRA      2693       1    1023     371    2129    1581
CTETRA      2694       1    1023     381    1024     380
CTETRA      2695       1    1018    1024    1023     381
CTETRA      2696       1    1023    2130    1024     570
CTETRA      2697       1    2116    5308    1715    5287
CTETRA      2698       1    1032    1171     834     668
CTETRA      2699       1     263     265     818     264
CTETRA      2700       1     263     262    2131     947
CTETRA      2701       1     263     947     252     262
CTETRA      2702       1     249     264     263     262
CTETRA      2703       1     263     818     265    2132
CTETRA      2704       1    1715    1857    5306    5307
CTETRA      2705       1     319    1910     872     540
CTETRA      2706       1     318     324     278     283
CTETRA      2707       1    1606     328     518     329
CTETRA      2708       1     521    1210    1797    2133
CTETRA      2709       1    1913     935     946    1911
CTETRA      2710       1     514     319    1910    1512
CTETRA      2711       1     284     319     540     327
CTETRA      2712       1     540     327     538     284
CTETRA      2713       1    1422     222     229     254
CTETRA      2714       1    1422    1423     255    1426
CTETRA      2715       1    1841     222     253     218
CTETRA      2716       1     972     229     228     232
CTETRA      2717       1    1422     229     972     232
CTETRA      2718       1    1557    2070    1559    1561
CTETRA      2719       1    1557    1584    1342     497
CTETRA      2720       1    1042     497     488    1014
CTETRA      2721       1    1014    1035     497     498
CTETRA      2722       1    1014     498    1902    2134
CTETRA      2723       1    1515    3924    3989    3990
CTETRA      2724       1    1014    2134    1035     498
CTETRA      2725       1    2135    5517    5541    5518
CTETRA      2726       1    1584     498    2134    1819
CTETRA      2727       1    1035    1038    1034    1042
CTETRA      2728       1     437    2136    2046    1879
CTETRA      2729       1    1012     438    1011    1879
CTETRA      2730       1     438     868     992     439
CTETRA      2731       1     399     404     398     396
CTETRA      2732       1     434     404     396     398
CTETRA      2733       1     404    2008     438     868
CTETRA      2734       1     172     987     662     986
CTETRA      2735       1     164     396     167     166
CTETRA      2736       1     399     404     396     406
CTETRA      2737       1     401     942     407     197
CTETRA      2738       1     193    1000     958    1436
CTETRA      2739       1     192     197    1001    1264
CTETRA      2740       1     190    1000     196     200
CTETRA      2741       1     189     191    1399     192
CTETRA      2742       1     190     603     189     604
CTETRA      2743       1     190     603    1296     197
CTETRA      2744       1     192     197    1264     189
CTETRA      2745       1    2116    5287    1715    5288
CTETRA      2746       1    1322     417    1321    1314
CTETRA      2747       1     417     468    1315     469
CTETRA      2748       1     414     416    1236    1235
CTETRA      2749       1     414    1235    1133     474
CTETRA      2750       1     419     697     981      21
CTETRA      2751       1     976     978     699     980
CTETRA      2752       1    1715    5304     623    5288
CTETRA      2753       1    1680    2137    4323    4348
CTETRA      2754       1     419     697     414     696
CTETRA      2755       1      32    2002    1731    1113
CTETRA      2756       1     182    1731      32    2001
CTETRA      2757       1      40      41     564      31
CTETRA      2758       1     181     182    1981    1949
CTETRA      2759       1     560      41    2138     561
CTETRA      2760       1     561      32      38    1730
CTETRA      2761       1    1012     437     441     438
CTETRA      2762       1     500    1847    1929    1940
CTETRA      2763       1     500    1848    5550    2139
CTETRA      2764       1    2140    1922     500     499
CTETRA      2765       1    5573    5906    1848     500
CTETRA      2766       1    2137    1680    4335    4348
CTETRA      2767       1    2100    1929    2141    1922
CTETRA      2768       1     597    1847     500    1848
CTETRA      2769       1    2091     312    2043    1927
CTETRA      2770       1    2043    2135     904    2091
CTETRA      2771       1    2091    1488     550    1466
CTETRA      2772       1    2091    2142    1466    1467
CTETRA      2773       1    2091    1488    1466    2092
CTETRA      2774       1    2091    2135    1782    1784
CTETRA      2775       1    1569     479     488     497
CTETRA      2776       1     487     488     835    1694
CTETRA      2777       1     479     481    1569    1568
CTETRA      2778       1    1014    2134    1016    1035
CTETRA      2779       1    1016    1038    1563    1040
CTETRA      2780       1    1286    2143     813    1288
CTETRA      2781       1     850     681     336     331
CTETRA      2782       1     682     333     681     846
CTETRA      2783       1     332     481    1295     333
CTETRA      2784       1     846    2010    1288     679
CTETRA      2785       1     564      41    1271     560
CTETRA      2786       1     111    1696     121    1721
CTETRA      2787       1     815     679     821     680
CTETRA      2788       1     114     121    1722    1721
CTETRA      2789       1     809    1753     808    1696
CTETRA      2790       1    1274     116     733      41
CTETRA      2791       1     476     908    5076    5079
CTETRA      2792       1     560      41    1274    2138
CTETRA      2793       1    2064    3839    3826    3838
CTETRA      2794       1    1274      41     113     116
CTETRA      2795       1    1274      41    1271     113
CTETRA      2796       1    1018    1019    1589    1020
CTETRA      2797       1    1018     381    1023    1022
CTETRA      2798       1     541    1823    1022    1822
CTETRA      2799       1    2137    4323    4348    4324
CTETRA      2800       1    1589    1022    2144    2145
CTETRA      2801       1    1022     381     409    1588
CTETRA      2802       1     541    1022    2146    1822
CTETRA      2803       1    2146    2145    2147    2144
CTETRA      2804       1    2148    2137    2149    4296
CTETRA      2805       1     404     868     405     408
CTETRA      2806       1     404     868     408    2008
CTETRA      2807       1     434    2008     398     441
CTETRA      2808       1    2136    1748     437     435
CTETRA      2809       1     399     401     406     903
CTETRA      2810       1     404    1479     868     439
CTETRA      2811       1     436     396     439    1765
CTETRA      2812       1    1765     903    1626     396
CTETRA      2813       1    1414     668    1417    1432
CTETRA      2814       1    1552     669    1415    1416
CTETRA      2815       1    1552     834    1415     668
CTETRA      2816       1    1428     571     573    1019
CTETRA      2817       1     571     573     671     669
CTETRA      2818       1     419     414      21     417
CTETRA      2819       1     642    4429    4428    4435
CTETRA      2820       1     696    1134    2121     697
CTETRA      2821       1     419     697     696    2123
CTETRA      2822       1    1916    1832     696    2123
CTETRA      2823       1    1683    1684    1916    1832
CTETRA      2824       1    1684     696    1832     980
CTETRA      2825       1    1916    2121     696    1791
CTETRA      2826       1    1181    5099    5098    5102
CTETRA      2827       1     647    4427    4426    4443
CTETRA      2828       1     954     960    1404     953
CTETRA      2829       1     267     282     884     279
CTETRA      2830       1     181     128       3     268
CTETRA      2831       1    1939     954    1404     283
CTETRA      2832       1       8     282     267     279
CTETRA      2833       1     268     953     884     960
CTETRA      2834       1     116     110     558     113
CTETRA      2835       1     110     558     113     125
CTETRA      2836       1     595    3601    1010    1005
CTETRA      2837       1     125     735    1005    1163
CTETRA      2838       1     115     112    2150     595
CTETRA      2839       1     125     444     113    2151
CTETRA      2840       1     119    1163     124     110
CTETRA      2841       1    1051    1052     422    1050
CTETRA      2842       1    1051     422     252     427
CTETRA      2843       1     421     422     427     252
CTETRA      2844       1     422     423    2152    1050
CTETRA      2845       1     427     426    1639     422
CTETRA      2846       1     422     274     426    2153
CTETRA      2847       1     558     734    1163     124
CTETRA      2848       1     564      40      31     557
CTETRA      2849       1    1272     560    1274    1750
CTETRA      2850       1     111     116    1274     113
CTETRA      2851       1    2137    4335    2154    4295
CTETRA      2852       1    1274    2138    1696    1750
CTETRA      2853       1     116     113     558      41
CTETRA      2854       1    2137    2149    4296    4295
CTETRA      2855       1    1310     508     509     635
CTETRA      2856       1    1606    1708    1512    1710
CTETRA      2857       1     629     637    1826    1258
CTETRA      2858       1     635     508     509     507
CTETRA      2859       1     507     694     631     508
CTETRA      2860       1     508     694     631     689
CTETRA      2861       1     687     635    1310     862
CTETRA      2862       1     634     507     631     635
CTETRA      2863       1    1007    1981    1998    1475
CTETRA      2864       1     734     427     787    1207
CTETRA      2865       1    1605    2155    1690    1603
CTETRA      2866       1    4401    1602    4394    4402
CTETRA      2867       1    1113    1730      32    2002
CTETRA      2868       1     787    1731    1997    1113
CTETRA      2869       1     494    3931    3905    3904
CTETRA      2870       1    1007    1996    1981    1846
CTETRA      2871       1    1602    4394    4402    2155
CTETRA      2872       1    1061     903    1626    1765
CTETRA      2873       1    2155    1603    4394    4395
CTETRA      2874       1    2156    3447    2157    3444
CTETRA      2875       1    1769    4146    4144    4143
CTETRA      2876       1     388    1765     396     436
CTETRA      2877       1     388     536    1626    2158
CTETRA      2878       1    1765    1626    1061    2159
CTETRA      2879       1    2159    2160    4972    2161
CTETRA      2880       1    2162    3447    2156    3453
CTETRA      2881       1    2158     536    1626    2159
CTETRA      2882       1     571     581     675     572
CTETRA      2883       1     568     579     571     581
CTETRA      2884       1    1415    1416    2163    1552
CTETRA      2885       1     568     571     579     569
CTETRA      2886       1    1021    1186     235    1459
CTETRA      2887       1     571     573    1019     574
CTETRA      2888       1    1428    1021     571    1019
CTETRA      2889       1    1414    1417     668    1415
CTETRA      2890       1      60     547      72      71
CTETRA      2891       1      33     878      34      64
CTETRA      2892       1      62     917    1141     546
CTETRA      2893       1      64      65      61     878
CTETRA      2894       1    1091     618     124     780
CTETRA      2895       1     558     734     124     116
CTETRA      2896       1     734     780    1091     124
CTETRA      2897       1     124     116    1974     120
CTETRA      2898       1    2126    2086    2156    2164
CTETRA      2899       1     118      76      81      82
CTETRA      2900       1     117     512     122     110
CTETRA      2901       1     706     966     965     805
CTETRA      2902       1     728    1956    1331    1332
CTETRA      2903       1    2165    4329    4922    4919
CTETRA      2904       1    1195     460    1196    1194
CTETRA      2905       1     708     706     803     709
CTETRA      2906       1     805     966     965     502
CTETRA      2907       1     501     460     136     452
CTETRA      2908       1    1195    1193    1128     386
CTETRA      2909       1     457     458     459     136
CTETRA      2910       1    1646    3841    3672    3671
CTETRA      2911       1    1195     386    1128     462
CTETRA      2912       1     460     136     462     459
CTETRA      2913       1     345     459     460    1195
CTETRA      2914       1     345     460    2166    1195
CTETRA      2915       1     460     458    2166     501
CTETRA      2916       1     763     757    1249     240
CTETRA      2917       1     302    1164     756    1645
CTETRA      2918       1    1249     763    2127     757
CTETRA      2919       1     757     763    2127     764
CTETRA      2920       1    1249    1695    2167     757
CTETRA      2921       1     757    1167    2167    1166
CTETRA      2922       1      75     509     508     507
CTETRA      2923       1     602     606    2168    2165
CTETRA      2924       1     534    5100    5099    5107
CTETRA      2925       1      74      79      78      80
CTETRA      2926       1      74      82      79      80
CTETRA      2927       1      81      74    2090      87
CTETRA      2928       1     181     282    1474    1981
CTETRA      2929       1    1474    1981    1475    1949
CTETRA      2930       1    1474    1949    1760    1942
CTETRA      2931       1     282    1474      12     280
CTETRA      2932       1    1144      12    1474     280
CTETRA      2933       1    1144    1474      26    1148
CTETRA      2934       1     877    1609    1634    1983
CTETRA      2935       1    1983    1635    1732    1634
CTETRA      2936       1    1983    1635    2169    2170
CTETRA      2937       1    1732     918    2171    1983
CTETRA      2938       1    1983    1732    2172    2171
CTETRA      2939       1    1983    2173     918    2171
CTETRA      2940       1    4574    2172    2173    4575
CTETRA      2941       1     606     605    1400    1668
CTETRA      2942       1    1166    1009    2167    2174
CTETRA      2943       1    2174    1009    2175    1143
CTETRA      2944       1    2174    1166     578    1247
CTETRA      2945       1    2167    1249    1166    1248
CTETRA      2946       1    1166    2167    1248    2174
CTETRA      2947       1    2174    1143    2176     578
CTETRA      2948       1    1012    1879    1011     594
CTETRA      2949       1    1748    1097    2136    1751
CTETRA      2950       1     438     439    1011    1879
CTETRA      2951       1    3299    3300    5679    2105
CTETRA      2952       1    1097    1749    1093    1092
CTETRA      2953       1      75     512     505      76
CTETRA      2954       1     506    1728     509      75
CTETRA      2955       1     778     745     767     777
CTETRA      2956       1     777      52     455    1918
CTETRA      2957       1     511     512     770     508
CTETRA      2958       1     689     767     688     508
CTETRA      2959       1     182    1981    1731    1996
CTETRA      2960       1     282     208    1981     882
CTETRA      2961       1    1438    1437    4318    4317
CTETRA      2962       1    1007    1846    1997    1996
CTETRA      2963       1      24     208    1981    1475
CTETRA      2964       1    1981     882     208     365
CTETRA      2965       1     799     706     708     805
CTETRA      2966       1     803    1767     387     709
CTETRA      2967       1    4936    4901    2177    4900
CTETRA      2968       1     799     392     804     803
CTETRA      2969       1     799     392    1197     800
CTETRA      2970       1    1919    2178    2179     458
CTETRA      2971       1      45     858     859      46
CTETRA      2972       1     369     859    2180     458
CTETRA      2973       1     458    2178    2179     858
CTETRA      2974       1      43     859      52    2181
CTETRA      2975       1      52      43      44      42
CTETRA      2976       1    4317    1438    1439    5680
CTETRA      2977       1     857     851     359    1241
CTETRA      2978       1    5680    2105    5679    1438
CTETRA      2979       1     857     359     748      44
CTETRA      2980       1    1697     466     468     464
CTETRA      2981       1    2182    1811    1798    5714
CTETRA      2982       1     360     354    1815    1702
CTETRA      2983       1     354     358     357      44
CTETRA      2984       1    2029    2108    3303    3304
CTETRA      2985       1    1834    1962    1700    1703
CTETRA      2986       1    1080    1885    1834    1082
CTETRA      2987       1     224    1322    1699    1321
CTETRA      2988       1    1502     221    1316    2183
CTETRA      2989       1    1322    1314    1321     224
CTETRA      2990       1     267    1855     278     273
CTETRA      2991       1    2027    3301    2029    3303
CTETRA      2992       1     607     614     872    1906
CTETRA      2993       1     127     538     284     540
CTETRA      2994       1     284     531    2030    1712
CTETRA      2995       1    2184     544    3944     928
CTETRA      2996       1    2184    2010    1096    2185
CTETRA      2997       1    2184    1566    1132     544
CTETRA      2998       1    2184    2010     661    1096
CTETRA      2999       1    2184    1566     661    2010
CTETRA      3000       1      56      35    2186    1529
CTETRA      3001       1    1532    1529      58    1531
CTETRA      3002       1    2029    3301    2028    3285
CTETRA      3003       1      54      58    1756      56
CTETRA      3004       1      54      55    1614    1536
CTETRA      3005       1      54    1756      57      56
CTETRA      3006       1      57    1608    1607    1100
CTETRA      3007       1      56      35     879    2186
CTETRA      3008       1      55      61      63     877
CTETRA      3009       1      55    1636    1634    1614
CTETRA      3010       1      56      35    1529    1532
CTETRA      3011       1      54      58      59    1537
CTETRA      3012       1     342    1932    2187    1105
CTETRA      3013       1     343     342    2009     344
CTETRA      3014       1     341     343     342    2187
CTETRA      3015       1    1608     342    1100    1932
CTETRA      3016       1    1351    1635    1352     342
CTETRA      3017       1     342     344    1667    2009
CTETRA      3018       1     606    1679    2165    1668
CTETRA      3019       1    1702     354    1815     355
CTETRA      3020       1     982    3460    3458    3436
CTETRA      3021       1     692    1110     175    1108
CTETRA      3022       1     688     777      52     779
CTETRA      3023       1     354      53     356      50
CTETRA      3024       1     356      53     556      50
CTETRA      3025       1     355     356     556      50
CTETRA      3026       1     354     356     357    1815
CTETRA      3027       1    2188    4622    4621    4640
CTETRA      3028       1     356    2189    4663     556
CTETRA      3029       1    1260    5021    1277    5022
CTETRA      3030       1      50     355    2120     556
CTETRA      3031       1    2015    3476    3477    3562
CTETRA      3032       1     356    2190     556    4663
CTETRA      3033       1    1320    1146    1147    1773
CTETRA      3034       1     291    1940     290     294
CTETRA      3035       1     289     292     288     290
CTETRA      3036       1     528     127     126     530
CTETRA      3037       1     292    1773     273    1799
CTETRA      3038       1    1147    1940     292    1772
CTETRA      3039       1    1773     279    1146     280
CTETRA      3040       1     433     870    1526    1941
CTETRA      3041       1     341      48    1421    2187
CTETRA      3042       1    1421    1933     752    2187
CTETRA      3043       1      47      43     370      46
CTETRA      3044       1     341     346     343    1421
CTETRA      3045       1      46     858     859     345
CTETRA      3046       1    1420     748     851     359
CTETRA      3047       1    1421      45    1840     750
CTETRA      3048       1     258     794     786    1846
CTETRA      3049       1     795    1445    1407     367
CTETRA      3050       1     794     795     796     798
CTETRA      3051       1     795     951     258     786
CTETRA      3052       1     261     795    1409     258
CTETRA      3053       1     795    1445    1406    1407
CTETRA      3054       1     795    1409    1408    1406
CTETRA      3055       1     537     896     171     902
CTETRA      3056       1     957     982     943     523
CTETRA      3057       1     895     166     402    2191
CTETRA      3058       1     895    1775    1000     899
CTETRA      3059       1    2033     892    2000     896
CTETRA      3060       1     892    2033    2000    2034
CTETRA      3061       1    1567     164     165     166
CTETRA      3062       1     396     903     166     397
CTETRA      3063       1     891     902     896     537
CTETRA      3064       1    1552    1416    2163    1186
CTETRA      3065       1     488    1694    1591    1590
CTETRA      3066       1     486    1664     834    1171
CTETRA      3067       1    1171    1415    1664     834
CTETRA      3068       1     714    1069    1669    1068
CTETRA      3069       1     303     756    1227     302
CTETRA      3070       1    2192    3284    2029    3285
CTETRA      3071       1     299    1071    1072     306
CTETRA      3072       1     303     277     310     301
CTETRA      3073       1     300     303     310     301
CTETRA      3074       1     285    1362    1622    1923
CTETRA      3075       1     126     295     293     866
CTETRA      3076       1     293     866     296     529
CTETRA      3077       1       9     870     433     295
CTETRA      3078       1       6    1262     657     866
CTETRA      3079       1       5     657     408     870
CTETRA      3080       1     870     657     408     941
CTETRA      3081       1     866     407     657     942
CTETRA      3082       1     284    1712    2030     318
CTETRA      3083       1    1302     530     528     529
CTETRA      3084       1    1302     528    1907    2193
CTETRA      3085       1       6     531     865     866
CTETRA      3086       1     530     531     529    1302
CTETRA      3087       1    2194    3224    4007    4009
CTETRA      3088       1     531    1303    1302     609
CTETRA      3089       1    1932     215     348    1231
CTETRA      3090       1    1608    1100     342    1630
CTETRA      3091       1     348    1231    2187    1932
CTETRA      3092       1     341     342     348    2187
CTETRA      3093       1    1231    1932    1105    2187
CTETRA      3094       1     342    2187    1932     348
CTETRA      3095       1     342    2009    1667    1630
CTETRA      3096       1     342    1352     344     348
CTETRA      3097       1     341    2187     348      48
CTETRA      3098       1     346    1421      48      45
CTETRA      3099       1     346    1839     344     343
CTETRA      3100       1    2195    5488    5465    5464
CTETRA      3101       1     344    1667    2009    1195
CTETRA      3102       1    1354    1667    1351     344
CTETRA      3103       1     342    1100    1932    1105
CTETRA      3104       1     345     460     458    2166
CTETRA      3105       1    1928    1930    2044    1931
CTETRA      3106       1    1929    2044    1930    1527
CTETRA      3107       1     500    1940     294    2140
CTETRA      3108       1     597     315    1929    1847
CTETRA      3109       1    1929    2042     314     315
CTETRA      3110       1    1929    1940     316    1527
CTETRA      3111       1    2141    1621    2196    2197
CTETRA      3112       1    2198    3951    3973    3975
CTETRA      3113       1    1785    2197    2199    2096
CTETRA      3114       1    2074    2075    3948    1774
CTETRA      3115       1    2069    3202    2194    4009
CTETRA      3116       1    2096    1922    2100    2141
CTETRA      3117       1    1622    1786    2141    1920
CTETRA      3118       1    2069    3188    2068    2070
CTETRA      3119       1    2141    2197    1922    1621
CTETRA      3120       1     964     968     711     577
CTETRA      3121       1      55      57    1634     877
CTETRA      3122       1      54      55      57    1614
CTETRA      3123       1      58    1756      56    2200
CTETRA      3124       1      56    2079    2200     881
CTETRA      3125       1    2003    2002    2201    2202
CTETRA      3126       1    2006    2002    2201    2003
CTETRA      3127       1    2002    2006    1113    1730
CTETRA      3128       1    2002    1730      32    2001
CTETRA      3129       1     986    1097     680    2203
CTETRA      3130       1     559     561    1751     594
CTETRA      3131       1     165     168     902     535
CTETRA      3132       1     987     680     986    1097
CTETRA      3133       1     435    1093    1748     984
CTETRA      3134       1     435    2136     986     983
CTETRA      3135       1    1748    1879    1751    2136
CTETRA      3136       1     435     167     436     388
CTETRA      3137       1    1097     986    2136    2203
CTETRA      3138       1     985    1097     362     987
CTETRA      3139       1     267     278    1855     934
CTETRA      3140       1    1858     945    2204    1938
CTETRA      3141       1    1938     940    1937    1858
CTETRA      3142       1     935     938     937     934
CTETRA      3143       1     643     644     642    2050
CTETRA      3144       1     946     939     938     945
CTETRA      3145       1     641     939     937     644
CTETRA      3146       1     641     644     643     939
CTETRA      3147       1    1854    1869    2205    2206
CTETRA      3148       1     608    1852    1851    1908
CTETRA      3149       1     608    2207    2208    1908
CTETRA      3150       1    1687    1851    1686    1708
CTETRA      3151       1    2206     613    1851    1869
CTETRA      3152       1    1851    2206    1854    1853
CTETRA      3153       1     608     614    1851     613
CTETRA      3154       1    1851    2209    1906    1908
CTETRA      3155       1    1851     613    1853    1852
CTETRA      3156       1    2074    3996     906    3991
CTETRA      3157       1      38    1119     561    1730
CTETRA      3158       1    1119    2210    1974     733
CTETRA      3159       1    1639     427     785    1091
CTETRA      3160       1    1119    1730    2007     561
CTETRA      3161       1    1119    2007    1730    2006
CTETRA      3162       1    1119     733    2007    2210
CTETRA      3163       1    1119    1113    2006    1730
CTETRA      3164       1     903    1003     406    1061
CTETRA      3165       1     535     475     901    1061
CTETRA      3166       1     400     398     397     399
CTETRA      3167       1     192    1850    1849    2211
CTETRA      3168       1    1000     400     196     957
CTETRA      3169       1     895    1775     892    2191
CTETRA      3170       1    2212    4144    4141    4140
CTETRA      3171       1     895    2191     402    1775
CTETRA      3172       1    1000     400     957    2213
CTETRA      3173       1    1422     972    1423    1426
CTETRA      3174       1     217     228    1322    1314
CTETRA      3175       1    1559     906     907    1774
CTETRA      3176       1    1562     906    2214     905
CTETRA      3177       1    1321     224    1078    1762
CTETRA      3178       1     218     229     254     963
CTETRA      3179       1     229    2215    1425     254
CTETRA      3180       1     972     228     222     223
CTETRA      3181       1    1559    2074     906    1774
CTETRA      3182       1     230     229     217     225
CTETRA      3183       1    1899    1896     220     229
CTETRA      3184       1     229    1425    1990     231
CTETRA      3185       1     420    1314     995     994
CTETRA      3186       1     417     420    1322     981
CTETRA      3187       1    1563    1038    2070    1040
CTETRA      3188       1     228     995     972     420
CTETRA      3189       1     972     228     698     232
CTETRA      3190       1     972     223    1733     995
CTETRA      3191       1     972     232     979     996
CTETRA      3192       1     420     228    1314    1322
CTETRA      3193       1     230     228     229     232
CTETRA      3194       1    1422    1424    1801    1425
CTETRA      3195       1     840    1989    2216     841
CTETRA      3196       1     834    1872     833     839
CTETRA      3197       1     836    1184    1987    1379
CTETRA      3198       1     835    1768    1694    1379
CTETRA      3199       1     835     834     836    1379
CTETRA      3200       1     837     447    1332    1988
CTETRA      3201       1    1332     837     841    1989
CTETRA      3202       1     837    1332    1331    1988
CTETRA      3203       1    1032    1170     670     834
CTETRA      3204       1    1029     675     670    1555
CTETRA      3205       1     675    1028    1030    1223
CTETRA      3206       1    1184     675     670     571
CTETRA      3207       1     675    1184    1555    2217
CTETRA      3208       1     675    4023     581    2217
CTETRA      3209       1    2194     906    3997    2214
CTETRA      3210       1    1744     270    1747    1590
CTETRA      3211       1    1015    1029    1223    1028
CTETRA      3212       1    1015    1223    1029    1590
CTETRA      3213       1    1015    1744    1039    1223
CTETRA      3214       1     994    2218    2219    2220
CTETRA      3215       1    2221     994    2218    2219
CTETRA      3216       1    2220    2222     700    2223
CTETRA      3217       1     701    1733    2220     995
CTETRA      3218       1    2220    2224    1733    2223
CTETRA      3219       1    2220    2219    2223    2218
CTETRA      3220       1     376     381    1173    1588
CTETRA      3221       1    1174    1173    2225     235
CTETRA      3222       1    1173    2225     235    1024
CTETRA      3223       1     234     235     247    1402
CTETRA      3224       1     191    2226    1682    1886
CTETRA      3225       1    4314    1886    1682    2226
CTETRA      3226       1    1886    2226    4314    4316
CTETRA      3227       1    2072    4301    4315    1437
CTETRA      3228       1    1437    4301    4315    4314
CTETRA      3229       1     192    1886    1399    1849
CTETRA      3230       1    1886    1849    2072    1399
CTETRA      3231       1    1886    2072    4301    1682
CTETRA      3232       1    2227    1676    4780    1959
CTETRA      3233       1     948     949    1496    1549
CTETRA      3234       1    1551    1424    1422    1464
CTETRA      3235       1    2228    4776    4768    1678
CTETRA      3236       1     948    1424    1889     950
CTETRA      3237       1    1424     950    1801    1889
CTETRA      3238       1    5526    2229    5503     259
CTETRA      3239       1     259     598    5526    2229
CTETRA      3240       1     259     598    5549    5526
CTETRA      3241       1     259    5549    1848    5904
CTETRA      3242       1     607     612     611    1521
CTETRA      3243       1     612     607     613    1519
CTETRA      3244       1     611    2230    1521    1398
CTETRA      3245       1     190     197     196    1000
CTETRA      3246       1     611    2085    2231    2087
CTETRA      3247       1     599     610     611    1302
CTETRA      3248       1     603     865    1264     601
CTETRA      3249       1    2088    1682    1401     605
CTETRA      3250       1    1302     611    1907     607
CTETRA      3251       1    1297     611    1907    1302
CTETRA      3252       1    2232     287    1621    5579
CTETRA      3253       1    1923    5579    2196    1621
CTETRA      3254       1    1923    1621    2196    1920
CTETRA      3255       1    5580    1923    5579    2196
CTETRA      3256       1    1923    5582    1362    1920
CTETRA      3257       1    1923    5605    1362    5582
CTETRA      3258       1     285     287    1923    1621
CTETRA      3259       1    1923    1362    5605    5604
CTETRA      3260       1     891     152     151     898
CTETRA      3261       1     150     157     162     156
CTETRA      3262       1    1959    1257    4776    4781
CTETRA      3263       1     171     902     896    1507
CTETRA      3264       1     537     902     171     168
CTETRA      3265       1     155     665     154     156
CTETRA      3266       1     896     927     931    1507
CTETRA      3267       1    1567     892     166     902
CTETRA      3268       1     896     892    2000    1567
CTETRA      3269       1     249     261     266     260
CTETRA      3270       1     249    1845     250     425
CTETRA      3271       1    1203     617     266     201
CTETRA      3272       1    1846    1714     258     794
CTETRA      3273       1    2233    2234    4846    2204
CTETRA      3274       1     202      16      24     625
CTETRA      3275       1      16    1203      17    1202
CTETRA      3276       1     625    1445     367    1716
CTETRA      3277       1      16    1203     201      17
CTETRA      3278       1    1717     266     249     258
CTETRA      3279       1      16    1203    1202    1845
CTETRA      3280       1    1323    2235     207    2109
CTETRA      3281       1      10      13      12      25
CTETRA      3282       1     282      12     208     884
CTETRA      3283       1     937     279      12     936
CTETRA      3284       1     883     882     885      15
CTETRA      3285       1     202    1857     649     209
CTETRA      3286       1     883    1858     940     939
CTETRA      3287       1     641     212     649     209
CTETRA      3288       1     883      12     937     884
CTETRA      3289       1     212    1858    1713     885
CTETRA      3290       1    1611    1625    1613    1610
CTETRA      3291       1     256    1191    1627    1625
CTETRA      3292       1    1611    2236    1131    1660
CTETRA      3293       1    1611    1612    1426    1660
CTETRA      3294       1    1422    1611     256    1613
CTETRA      3295       1    1422    1611    1612    1426
CTETRA      3296       1     870     408    2237     941
CTETRA      3297       1     870    2238    1941    1358
CTETRA      3298       1     268     955     962     961
CTETRA      3299       1       2     988       4     135
CTETRA      3300       1     285    1356    1941    1623
CTETRA      3301       1     126     293     295       9
CTETRA      3302       1       2     130     131     988
CTETRA      3303       1     869     990    2008       5
CTETRA      3304       1    2024    1358     295    1359
CTETRA      3305       1    2024     870     295    1358
CTETRA      3306       1       4     955     989     128
CTETRA      3307       1     607     530     528    1302
CTETRA      3308       1     608    1851    1852     613
CTETRA      3309       1     607     609     530    1302
CTETRA      3310       1    1851     614    1520     613
CTETRA      3311       1    2227    5331    4791    4793
CTETRA      3312       1     784     781    2239    2240
CTETRA      3313       1     781     782     620     784
CTETRA      3314       1     784     785     620     566
CTETRA      3315       1     784     566     620    2241
CTETRA      3316       1     784     620    2240    2241
CTETRA      3317       1     784     788     785    1540
CTETRA      3318       1    1540     788    2242     784
CTETRA      3319       1     952    1540     788    2242
CTETRA      3320       1    1622     294    2141    1623
CTETRA      3321       1    1925    2043    1928    1927
CTETRA      3322       1    2141    2096    1785    1927
CTETRA      3323       1    2227    1959    4781    1257
CTETRA      3324       1    2197    2243     499    2232
CTETRA      3325       1    2100     499    2098    2139
CTETRA      3326       1     499     500    2100    1922
CTETRA      3327       1    1922    1621    2232    1620
CTETRA      3328       1    1922    2098    2197    2096
CTETRA      3329       1    1933    1231    2187     348
CTETRA      3330       1     348      48    1933    1347
CTETRA      3331       1    1231    1933    2244    1232
CTETRA      3332       1    1933     752    2187    2244
CTETRA      3333       1     747    1421      48    1933
CTETRA      3334       1     465    1933     747      48
CTETRA      3335       1    1347      48    1933     465
CTETRA      3336       1     747    1933     474     753
CTETRA      3337       1    2090    1294    1671    1859
CTETRA      3338       1    1859    1860     630    1671
CTETRA      3339       1     694     630    1294    1859
CTETRA      3340       1    1859     631     694     630
CTETRA      3341       1     507      77      88    1859
CTETRA      3342       1    1859     507     694     631
CTETRA      3343       1     507     629     631     630
CTETRA      3344       1    1259    1677    1860    2245
CTETRA      3345       1    1259    1862    2246    2247
CTETRA      3346       1    1860    2248    2249    2250
CTETRA      3347       1     631     634     628     629
CTETRA      3348       1      88      77     507      78
CTETRA      3349       1    1860    1677    2248    2245
CTETRA      3350       1    1259    1862    2247    2250
CTETRA      3351       1      88     507    1862      78
CTETRA      3352       1       8    1773     279     273
CTETRA      3353       1    2024     657     942     866
CTETRA      3354       1     183     565     559      32
CTETRA      3355       1     180    1011     991    1878
CTETRA      3356       1     268     282     960     884
CTETRA      3357       1       4     991     955     181
CTETRA      3358       1     180     438     868     992
CTETRA      3359       1     438     868    2008     990
CTETRA      3360       1     438     990    2008    1013
CTETRA      3361       1     714    1069    1619     716
CTETRA      3362       1     713     714     277     715
CTETRA      3363       1     310    1619    2251    2252
CTETRA      3364       1    1069    1071    1068     306
CTETRA      3365       1     306     307    1071     766
CTETRA      3366       1     714    1619     310    2252
CTETRA      3367       1     302     303     301    1227
CTETRA      3368       1     714     303      94     277
CTETRA      3369       1     273     538    1799     586
CTETRA      3370       1     126     130     531     284
CTETRA      3371       1       6     866     865    1262
CTETRA      3372       1     278     273    1855     584
CTETRA      3373       1     126     295     866     657
CTETRA      3374       1     273    1320     586    1799
CTETRA      3375       1    1773     273    1799    1320
CTETRA      3376       1    1676    1959    4775    4780
CTETRA      3377       1     278     283     132     318
CTETRA      3378       1      43      42     859      45
CTETRA      3379       1      44     748     857      42
CTETRA      3380       1     856    1420     750     748
CTETRA      3381       1    1673    4757    1676    1672
CTETRA      3382       1     458     136    2180     501
CTETRA      3383       1     136    2180     501    2125
CTETRA      3384       1    1292    1672    1671    1678
CTETRA      3385       1     136     453     454     456
CTETRA      3386       1    2253     616    1488    2092
CTETRA      3387       1    2253    1488    1490    2097
CTETRA      3388       1    2253     616    2254    1489
CTETRA      3389       1    2253    2255    1490    1489
CTETRA      3390       1    1681    2227    1959    1676
CTETRA      3391       1    2256     991    1881    2257
CTETRA      3392       1    1881    2257    4947    2256
CTETRA      3393       1     989    2258     135     988
CTETRA      3394       1       4     989     991     135
CTETRA      3395       1     989     135    2258    2257
CTETRA      3396       1     629    1959    1826    1257
CTETRA      3397       1       4     989     955     991
CTETRA      3398       1     989    2259     128     962
CTETRA      3399       1    1658     672    1655    1033
CTETRA      3400       1     673    1032    1029     670
CTETRA      3401       1    1186     669    1416    1431
CTETRA      3402       1    1414    1432    1419    1656
CTETRA      3403       1    1662     668    1417    1415
CTETRA      3404       1    1414     668    1655     669
CTETRA      3405       1    1555     675     670    1184
CTETRA      3406       1    1662    1415    1664    1171
CTETRA      3407       1    1415     668    1171    1662
CTETRA      3408       1    1655    1661     573     672
CTETRA      3409       1     251     257     258     786
CTETRA      3410       1    1051     252     947     788
CTETRA      3411       1     873     874    1910    2260
CTETRA      3412       1     251     252     788     947
CTETRA      3413       1    1639      87     422      80
CTETRA      3414       1    1051     252    1052     947
CTETRA      3415       1      88    1862    1860    2250
CTETRA      3416       1     629     630    1860    1677
CTETRA      3417       1      74    1861      78      88
CTETRA      3418       1    1723    1724     507      78
CTETRA      3419       1      75    1728     509      78
CTETRA      3420       1    1520    4380    2115    4379
CTETRA      3421       1     871    1517    1520    1519
CTETRA      3422       1    1511    1851    1520    1708
CTETRA      3423       1    1869    1851    1854    1709
CTETRA      3424       1    1851    1520    1708    1709
CTETRA      3425       1    1520    2115    1710    4379
CTETRA      3426       1    1511     319     872    1906
CTETRA      3427       1    1520    1511     871     614
CTETRA      3428       1    1520    1710    1708    1709
CTETRA      3429       1    1033    1904     498    1905
CTETRA      3430       1    1905    2134    2261    1902
CTETRA      3431       1    2134    1572    1819    1905
CTETRA      3432       1     205    1490    1488     550
CTETRA      3433       1     205     616     552    1466
CTETRA      3434       1    2253    1489    1490    1488
CTETRA      3435       1    1488    1490    1778     550
CTETRA      3436       1    1070     549     304     305
CTETRA      3437       1    2262     553      73     549
CTETRA      3438       1      73     297      70    2263
CTETRA      3439       1     298    1070      73     304
CTETRA      3440       1    1070     300     301     305
CTETRA      3441       1     310    1070    2262    2264
CTETRA      3442       1    2262     310    2251     301
CTETRA      3443       1     493    1443    1441    1442
CTETRA      3444       1    2264    2262    2265    1070
CTETRA      3445       1      72      70    2263      73
CTETRA      3446       1    2265     297    2264    1070
CTETRA      3447       1    1389    1390    3575    2266
CTETRA      3448       1    1829    1831    1884    1684
CTETRA      3449       1     418    2267     700     977
CTETRA      3450       1     701     972     973    1733
CTETRA      3451       1    1236    1831    1684    1685
CTETRA      3452       1     418     977     975    2267
CTETRA      3453       1    1684     975     418     980
CTETRA      3454       1     413     416    2220     700
CTETRA      3455       1    1759    2267     418    1831
CTETRA      3456       1    1639     422    1051     427
CTETRA      3457       1     251     257     250     249
CTETRA      3458       1     782     781     786     788
CTETRA      3459       1     787      39    1394    1731
CTETRA      3460       1      81     618     785     822
CTETRA      3461       1    1639     426     427    1640
CTETRA      3462       1     782     788     427     785
CTETRA      3463       1     205     550    1488    1466
CTETRA      3464       1    1490    1376    2255    2268
CTETRA      3465       1    1490    1493    1373    2099
CTETRA      3466       1    2253    2254    1365    1481
CTETRA      3467       1    1363     203     205     616
CTETRA      3468       1    1490    2269    1373    2268
CTETRA      3469       1    2097    2268    2269    1490
CTETRA      3470       1    1489     616    1488    2253
CTETRA      3471       1     205    1466     552     550
CTETRA      3472       1     616    1363    1489     205
CTETRA      3473       1    2270    3593    5234    5853
CTETRA      3474       1    1364     616    5475    5474
CTETRA      3475       1     615    5519    5495    2142
CTETRA      3476       1     615     904    1466    1465
CTETRA      3477       1     616    5472     203     552
CTETRA      3478       1     615    5473     616    5472
CTETRA      3479       1     203    5473    5450    5449
CTETRA      3480       1     821    1269     816     680
CTETRA      3481       1     435    2136    1748    1097
CTETRA      3482       1     172     985     173     661
CTETRA      3483       1     987    1098    1269     362
CTETRA      3484       1     685     742     682     676
CTETRA      3485       1     682     986     680     676
CTETRA      3486       1     558     125     110    1163
CTETRA      3487       1     735      40      28      37
CTETRA      3488       1     558     735      37      40
CTETRA      3489       1     735    1163      37    2271
CTETRA      3490       1    1231    2244    1104    1232
CTETRA      3491       1    1421    1933    2187      48
CTETRA      3492       1    1231    2187    1105    2244
CTETRA      3493       1     381    1023    1022     541
CTETRA      3494       1     381    1588    1435     409
CTETRA      3495       1     765    1226      91    1225
CTETRA      3496       1      89      96      91      97
CTETRA      3497       1    1021    1173     235    1024
CTETRA      3498       1    1588     376    1403    1402
CTETRA      3499       1    1173     381     380    1024
CTETRA      3500       1    1018    1022    2144    1589
CTETRA      3501       1     377     239      91     376
CTETRA      3502       1    2121    1134    2272    2273
CTETRA      3503       1    2121    1791    1104    1134
CTETRA      3504       1    2121    1791    2122    2274
CTETRA      3505       1    1916    2122    1791    1333
CTETRA      3506       1    1916    2123    2124    1335
CTETRA      3507       1    1300    1298    1600    1683
CTETRA      3508       1    2124    2273     697    2121
CTETRA      3509       1     696    1791    2121    1134
CTETRA      3510       1    2121    2123     697    2124
CTETRA      3511       1    1021    1173    1588    1402
CTETRA      3512       1    1021     235    1402    1459
CTETRA      3513       1    2275    3588     491    3596
CTETRA      3514       1    1186    1185    1431    1187
CTETRA      3515       1    1552    1186     836    1184
CTETRA      3516       1    1021    1173    1402     235
CTETRA      3517       1     235    1024    2225     569
CTETRA      3518       1      58      59     772    1214
CTETRA      3519       1    1214      59     772     755
CTETRA      3520       1    1642     712    1646    1650
CTETRA      3521       1    1139    1642     712    1137
CTETRA      3522       1    1642    1648    1139    1233
CTETRA      3523       1    1648     702    2276    1137
CTETRA      3524       1    1648    1233     702    1139
CTETRA      3525       1    1648    3841    1233    1646
CTETRA      3526       1    1648    1233    3841    2276
CTETRA      3527       1     107     100     924     925
CTETRA      3528       1     100     525     923    1805
CTETRA      3529       1     107     100     925    1805
CTETRA      3530       1    2277     525     923     100
CTETRA      3531       1    3586     493    2266    1390
CTETRA      3532       1    1677    1958    2245    2076
CTETRA      3533       1     412    2278    1651    1588
CTETRA      3534       1    2279    1402    2280    1459
CTETRA      3535       1    2281    1588    2278    1403
CTETRA      3536       1    2279    1402    1403    2281
CTETRA      3537       1    2152    2282    1861    2283
CTETRA      3538       1    2152     650     423     667
CTETRA      3539       1     426    2153      80     422
CTETRA      3540       1     422    2152    2284    1050
CTETRA      3541       1    2152    2284     667    2153
CTETRA      3542       1    2152    1050    1861    2284
CTETRA      3543       1      22    1880    2285    1699
CTETRA      3544       1      22      20    1880    1699
CTETRA      3545       1      21      22      23    2286
CTETRA      3546       1      22     749    1880      23
CTETRA      3547       1     445    1138     702     246
CTETRA      3548       1     445     804     448     447
CTETRA      3549       1     240     702     246     238
CTETRA      3550       1     234     246     245     247
CTETRA      3551       1    2287     771     588    1211
CTETRA      3552       1    2287    2288    2151    1160
CTETRA      3553       1    2287     771    1211     115
CTETRA      3554       1    1160     115     112    2287
CTETRA      3555       1    2287    1944    1211     590
CTETRA      3556       1    2287    2150    3469     589
CTETRA      3557       1    2151    1160     112    2287
CTETRA      3558       1    2287    3469    2150    2288
CTETRA      3559       1     671     675     571     670
CTETRA      3560       1     671    1031     674     672
CTETRA      3561       1    1428     573    1661    1019
CTETRA      3562       1    1428     669    1655     573
CTETRA      3563       1    2163    2289     839    1989
CTETRA      3564       1    1989    2216    1601    2289
CTETRA      3565       1     840    1872     833    2290
CTETRA      3566       1     840     833    1872     839
CTETRA      3567       1    1986    2216    2291    2289
CTETRA      3568       1     840    1872    2290    2292
CTETRA      3569       1    2216    2291    2289     840
CTETRA      3570       1     840    2293     841    2291
CTETRA      3571       1     124     120    1974     123
CTETRA      3572       1     111     116     110     120
CTETRA      3573       1     734    1974     116     733
CTETRA      3574       1      41      40    1271     113
CTETRA      3575       1    1271     111    1274     113
CTETRA      3576       1    1193    2294    2295    1767
CTETRA      3577       1    1767     709    2296    2297
CTETRA      3578       1    1767     706     971     710
CTETRA      3579       1     148     138    1201     143
CTETRA      3580       1     967    1193    1128    1195
CTETRA      3581       1    1767     709    2297     387
CTETRA      3582       1     803    1767     709     706
CTETRA      3583       1     445     804     802     448
CTETRA      3584       1     966     967    1193     971
CTETRA      3585       1     458     460     136     501
CTETRA      3586       1     739    1971     746     738
CTETRA      3587       1     138     746    1971    1201
CTETRA      3588       1     454     455    1917     457
CTETRA      3589       1     491    2298    3577    2299
CTETRA      3590       1     746    1944     142     463
CTETRA      3591       1     136    2180    2125     456
CTETRA      3592       1     240     239    1225     763
CTETRA      3593       1     234     239    1225     240
CTETRA      3594       1     239     238    1175     789
CTETRA      3595       1     377      97      96     276
CTETRA      3596       1     276    1227     277      96
CTETRA      3597       1      96     763     765    1225
CTETRA      3598       1    1968     745    1917     454
CTETRA      3599       1     739     738     745     737
CTETRA      3600       1     746    1201    1155    1971
CTETRA      3601       1     707    1643    1142    1650
CTETRA      3602       1     302    1645    1227     305
CTETRA      3603       1     711     578     707     706
CTETRA      3604       1      62    1165     549    1142
CTETRA      3605       1    1070     301    2262     305
CTETRA      3606       1     705    1138     450    1249
CTETRA      3607       1     306    1068    1076     766
CTETRA      3608       1    2180     136     455     456
CTETRA      3609       1     859      52     455    1919
CTETRA      3610       1     859    2178      52    1919
CTETRA      3611       1     859     458     455    2180
CTETRA      3612       1     455     778    1917    1919
CTETRA      3613       1     455    2180     736    1918
CTETRA      3614       1     859    2181     370    2180
CTETRA      3615       1     137     452     139     136
CTETRA      3616       1    2166     460    1196    1195
CTETRA      3617       1     345     458     369    2166
CTETRA      3618       1     858     346      46      45
CTETRA      3619       1      46     859     370     369
CTETRA      3620       1     345    1129     858     459
CTETRA      3621       1    2300    2301    2302    1637
CTETRA      3622       1    2303    4385    4291    4290
CTETRA      3623       1    2304    3383    2182    3382
CTETRA      3624       1    1636     877    2302    1637
CTETRA      3625       1    1636    1634    1614    2169
CTETRA      3626       1    1636    2169    2301    2302
CTETRA      3627       1    1165     707    1139    1643
CTETRA      3628       1     711     712     707    1650
CTETRA      3629       1     711     710     712    1650
CTETRA      3630       1     708     802     805     450
CTETRA      3631       1     706     965    1247     805
CTETRA      3632       1     966    1193    1767     971
CTETRA      3633       1    1468     621    1998    1844
CTETRA      3634       1      26    1468    1475      19
CTETRA      3635       1    1468    1998     621    2305
CTETRA      3636       1    1468    1478    3413    1469
CTETRA      3637       1    1468    1478    2305    3413
CTETRA      3638       1    2306    2307    3186    2308
CTETRA      3639       1    2306    2309    1384    2310
CTETRA      3640       1    2306    2309    2310     109
CTETRA      3641       1     873    2303    2311    2312
CTETRA      3642       1    2306    3148    2310    3163
CTETRA      3643       1    2306    2313    3148    2307
CTETRA      3644       1    2306    3181    3186    2307
CTETRA      3645       1    2306    2307    3148    3181
CTETRA      3646       1    2312    4385    4290    4384
CTETRA      3647       1     855    2012    2314    1839
CTETRA      3648       1     855      45    1839     858
CTETRA      3649       1     855    2012     856    2315
CTETRA      3650       1     855    2178      42     858
CTETRA      3651       1    1913    1915    1912    2316
CTETRA      3652       1    2316    2234    2317    1913
CTETRA      3653       1    2317    1913     140    2316
CTETRA      3654       1    1913    1915    1413     324
CTETRA      3655       1     873    2311    2304    2260
CTETRA      3656       1     804    1332     447    1140
CTETRA      3657       1    1518    2318    2319    2320
CTETRA      3658       1     236    1176    1987    1172
CTETRA      3659       1     236     447     246     446
CTETRA      3660       1     445     449     246     446
CTETRA      3661       1     133     868    1479     135
CTETRA      3662       1     865     866     529    1296
CTETRA      3663       1    1264     603     189     197
CTETRA      3664       1    1263     601     865    1303
CTETRA      3665       1     407     657     942     403
CTETRA      3666       1     405     657     403     408
CTETRA      3667       1    1262     656    1479     406
CTETRA      3668       1    1612    4247    4239    4246
CTETRA      3669       1     407    1261    1262     406
CTETRA      3670       1    5417    5689    5690    3327
CTETRA      3671       1     657       6     133    1262
CTETRA      3672       1    2184     495    3937    2185
CTETRA      3673       1     150     896     151     159
CTETRA      3674       1    2321    3544    3545    3548
CTETRA      3675       1    1318    3430    5708    5913
CTETRA      3676       1     154     157    2052     155
CTETRA      3677       1    2322    3553    3552    3556
CTETRA      3678       1     874     540    1910    1796
CTETRA      3679       1     150     160     162     159
CTETRA      3680       1     155    1509    1579     658
CTETRA      3681       1    2323    4660    4692    4661
CTETRA      3682       1    1624    5378    5382    4265
CTETRA      3683       1     155     171    1507    1508
CTETRA      3684       1    1492    1484    1486    4153
CTETRA      3685       1    1407    4723    4715    4714
CTETRA      3686       1     157    1205    1704     162
CTETRA      3687       1    1578     155    1579    2052
CTETRA      3688       1     157    1578    1704    1205
CTETRA      3689       1    1098    1269    2185    1096
CTETRA      3690       1    2324    1098    1095     985
CTETRA      3691       1    2324     985    1095     790
CTETRA      3692       1    1098    1096    2185     495
CTETRA      3693       1     361     495    3903    1095
CTETRA      3694       1    1719    4040    4041    4038
CTETRA      3695       1    1095    1098     361     495
CTETRA      3696       1     333     846    1295    1289
CTETRA      3697       1     161     931    1705    1706
CTETRA      3698       1     847     731     850     725
CTETRA      3699       1     987     662     682    1096
CTETRA      3700       1    5415    5414    5687    3306
CTETRA      3701       1     814    1790    3238    2325
CTETRA      3702       1     682    1278     685     335
CTETRA      3703       1     676     680     686     986
CTETRA      3704       1    1383    5434    5899    3319
CTETRA      3705       1     399     405     407     403
CTETRA      3706       1     987     682     679    1096
CTETRA      3707       1     431     432    5395    5396
CTETRA      3708       1     680     677     679     681
CTETRA      3709       1     682     662    2010    1096
CTETRA      3710       1    2326    3688    3728    3687
CTETRA      3711       1     490    3594     491     493
CTETRA      3712       1     679     677     815     813
CTETRA      3713       1     431    2327    1497    3530
CTETRA      3714       1    1798    1796    1793     539
CTETRA      3715       1     342    1105    1630    1100
CTETRA      3716       1     968     967    1667    1666
CTETRA      3717       1     967    1196    1195    1666
CTETRA      3718       1     964     711     969     710
CTETRA      3719       1     342    1630    1105    2328
CTETRA      3720       1    1266    4901    4936    4979
CTETRA      3721       1    2328     343     342    2009
CTETRA      3722       1     615    5520    5496    5519
CTETRA      3723       1     344    1195    2009    1129
CTETRA      3724       1     816    2329    1271    1092
CTETRA      3725       1    1092    2329    1313     363
CTETRA      3726       1    2329    2330    1271     443
CTETRA      3727       1     431    5843    3531    5396
CTETRA      3728       1    2101     432     431    1497
CTETRA      3729       1     364    2329    1092     363
CTETRA      3730       1    1313    1092    2331     564
CTETRA      3731       1     814    2070    3188    3189
CTETRA      3732       1     751    2332    2016    2012
CTETRA      3733       1    2012    1839    1840    2333
CTETRA      3734       1    2334    2335    3427    2235
CTETRA      3735       1    1396    1191    4816    4705
CTETRA      3736       1    1396    4705    5809    4242
CTETRA      3737       1    2204    4847    4850    4846
CTETRA      3738       1    2336    4440    5834    4441
CTETRA      3739       1     855    2337    2314    3769
CTETRA      3740       1    2338    4436    4440    4437
CTETRA      3741       1    2339     852    2337    2178
CTETRA      3742       1    2340    3391    2341    4411
CTETRA      3743       1    1715    5307    5306    5304
CTETRA      3744       1    2012     750    1840     856
CTETRA      3745       1    1519    4293    4336    4337
CTETRA      3746       1    2342    5431    5455    5432
CTETRA      3747       1     751     750    2012    2015
CTETRA      3748       1    2333    1840    2012    2332
CTETRA      3749       1    1482    5499    5500    5476
CTETRA      3750       1    2012    2314    3770    2315
CTETRA      3751       1    2012    3770    2015    2315
CTETRA      3752       1    2068    3188    2073    3236
CTETRA      3753       1     608    2207    1908    1906
CTETRA      3754       1     904    5518    5542    5519
CTETRA      3755       1    2207    1712    2030     609
CTETRA      3756       1    2207    2058    1712     609
CTETRA      3757       1    2207    2209    1908    1906
CTETRA      3758       1     591    3612    3470    3471
CTETRA      3759       1    1052    5281     652    5218
CTETRA      3760       1    2343     554    2344    4607
CTETRA      3761       1     534    5100    5083    5099
CTETRA      3762       1     384    4505    2345    4538
CTETRA      3763       1     346      45    1839    1840
CTETRA      3764       1    2325    3256    3237     814
CTETRA      3765       1      48     465     464     747
CTETRA      3766       1    1300    4212    4201    4211
CTETRA      3767       1    2190    2119    4664    4696
CTETRA      3768       1    1933    2187      48     348
CTETRA      3769       1      43      49      48      47
CTETRA      3770       1     828    1079    2022    1883
CTETRA      3771       1     748      45    1421     750
CTETRA      3772       1     341    2187    1421     343
CTETRA      3773       1      46      47      48     347
CTETRA      3774       1    5433    1383    3315    5434
CTETRA      3775       1     830    1109     831    1755
CTETRA      3776       1    2016    3478    3477    3772
CTETRA      3777       1      42     854      52    2178
CTETRA      3778       1     859     345     369      46
CTETRA      3779       1    1396    4244    1337    4242
CTETRA      3780       1      43     859    2181     370
CTETRA      3781       1    2346    3638    3645    3639
CTETRA      3782       1     857    1240     854     851
CTETRA      3783       1    1454    1455    4053    4047
CTETRA      3784       1    1238      44    1109     358
CTETRA      3785       1     219     224    1321    1314
CTETRA      3786       1     219    1321    1316    1314
CTETRA      3787       1    2347    4788    4794    4783
CTETRA      3788       1    2348    2349    2269    2268
CTETRA      3789       1    2350    3117    5649    3118
CTETRA      3790       1    1867     218     963     219
CTETRA      3791       1    2140    5573    5906    5596
CTETRA      3792       1    1314     221     223     995
CTETRA      3793       1      72    2351    2352    2353
CTETRA      3794       1     217     225     224    1322
CTETRA      3795       1    2354    4483    4548    4482
CTETRA      3796       1     218     222     254     229
CTETRA      3797       1     841     838     728    1329
CTETRA      3798       1     487     835     838    1694
CTETRA      3799       1    1332     838     728     841
CTETRA      3800       1     727     143    2355    1957
CTETRA      3801       1    1332     804    2356    1984
CTETRA      3802       1    2357    4533    2167    2175
CTETRA      3803       1     724     728     729     732
CTETRA      3804       1     728    1984    1330    1954
CTETRA      3805       1    2358    3525    3534    3535
CTETRA      3806       1     611     612    1398    1521
CTETRA      3807       1     607    2031     612     613
CTETRA      3808       1    1680     610    2137     612
CTETRA      3809       1    2084    1454    2359    2083
CTETRA      3810       1    1157    2360    2361    1159
CTETRA      3811       1     612    2137     613    2031
CTETRA      3812       1     332     269     838     730
CTETRA      3813       1     331     850     731     339
CTETRA      3814       1     331     850    1150     336
CTETRA      3815       1    1483     163    5428    3346
CTETRA      3816       1    1396    4243    4242    5809
CTETRA      3817       1     331     336     333     681
CTETRA      3818       1    1454    2359    2083    3987
CTETRA      3819       1    2323    4640    4660    4641
CTETRA      3820       1    1445    1409    2362     624
CTETRA      3821       1    1130    1396    1191    1337
CTETRA      3822       1    1955     727     731    1954
CTETRA      3823       1    2363    2204    4850    2111
CTETRA      3824       1     727     731     339    1955
CTETRA      3825       1    1772     292     433    1940
CTETRA      3826       1       5     180     990     868
CTETRA      3827       1    2029    3304    3303    3301
CTETRA      3828       1    2258    4960    2259    4962
CTETRA      3829       1    2364     866     296    1359
CTETRA      3830       1    1489    2365    2366    2367
CTETRA      3831       1    2183    4668    4699    4700
CTETRA      3832       1    2024     866    2026    1359
CTETRA      3833       1    2368    3707    3709    3708
CTETRA      3834       1       9     295     126     657
CTETRA      3835       1    4049    1514    2369    3988
CTETRA      3836       1     866    2026     942    2024
CTETRA      3837       1     185    1760     281    1528
CTETRA      3838       1     295    1358     870    1941
CTETRA      3839       1    3107    5668    5170    5669
CTETRA      3840       1    1359     296     295     866
CTETRA      3841       1    1872    5129    2292    1873
CTETRA      3842       1    1872    2292    5129    2290
CTETRA      3843       1    2351    2370    4108    4107
CTETRA      3844       1    2371    4885    2372    4464
CTETRA      3845       1    2373    5181    5189    5194
CTETRA      3846       1     910    4534     911    4536
CTETRA      3847       1     839    1415     834    1872
CTETRA      3848       1    1662    1415    1872    1664
CTETRA      3849       1    1313    3465    3653    3657
CTETRA      3850       1     897    3243    2004    3244
CTETRA      3851       1    4878    1601    2374    1596
CTETRA      3852       1      58    1757    2200    1532
CTETRA      3853       1      58    2200      56    1532
CTETRA      3854       1      58    1531    1106    1757
CTETRA      3855       1    1223    4014    4015    4011
CTETRA      3856       1      54      55     879      56
CTETRA      3857       1    1102    1535    1100    1932
CTETRA      3858       1    1102    1932    1100    1105
CTETRA      3859       1    1535    1608    1932    1635
CTETRA      3860       1    5426    3350    3343    5699
CTETRA      3861       1    2375    1624    5377    1627
CTETRA      3862       1    1535    2376    1216    1635
CTETRA      3863       1     138    1201     143     142
CTETRA      3864       1     114    1155    1722     746
CTETRA      3865       1     144     145     139    1541
CTETRA      3866       1     812    1943     811    2355
CTETRA      3867       1     812    1943    1161     811
CTETRA      3868       1    2377    3104    3180    3103
CTETRA      3869       1    1454    3987    1455    4047
CTETRA      3870       1    1156    1944    1160    1161
CTETRA      3871       1     463     746     138     142
CTETRA      3872       1     739     456     453    1971
CTETRA      3873       1    4005    5637    5636    3225
CTETRA      3874       1     206    5424    5447    5448
CTETRA      3875       1    2369    4059    4057    4058
CTETRA      3876       1    1273     843     845     844
CTETRA      3877       1    1156    1160    1944    1211
CTETRA      3878       1    2042     312    1089    1927
CTETRA      3879       1    2369    2359    1454    4048
CTETRA      3880       1     596    2042     597     315
CTETRA      3881       1    1928    2042    1090     314
CTETRA      3882       1    1925    1929    2141    1927
CTETRA      3883       1    1381    1382    3977    3911
CTETRA      3884       1    1925    1784    1926    2043
CTETRA      3885       1     500    1929     294    1940
CTETRA      3886       1    1929     316    1940    1847
CTETRA      3887       1    5549    1848     597     598
CTETRA      3888       1    2378    5186    5180    5181
CTETRA      3889       1    1928    1929    2042     314
CTETRA      3890       1    2100    1929    1927    2141
CTETRA      3891       1    2379    4097    4098    5793
CTETRA      3892       1    1929     294    1940    1623
CTETRA      3893       1    1660    1612    1800    4239
CTETRA      3894       1    2380    4651    4632    4650
CTETRA      3895       1    1472    3726    3736    3727
CTETRA      3896       1    4784    1501    2381    4783
CTETRA      3897       1    5556    5579    5555    2196
CTETRA      3898       1    2382    2383    3492    3493
CTETRA      3899       1     921    2384    1513    1486
CTETRA      3900       1    2232    5600    1794    5601
CTETRA      3901       1    2385    4078    2386    4087
CTETRA      3902       1    2232     287    5602    1794
CTETRA      3903       1    1770    4151    4143    4136
CTETRA      3904       1    2232    1621     287    1620
CTETRA      3905       1     824     830     831     638
CTETRA      3906       1     826     825    1442    1443
CTETRA      3907       1    1618    1660    4240    1612
CTETRA      3908       1    1963     352    1361    1692
CTETRA      3909       1     351     352     353    1692
CTETRA      3910       1     824     830     638     829
CTETRA      3911       1    1818    3123    4152    3124
CTETRA      3912       1    1883     352     350    2022
CTETRA      3913       1    1535    1608    1100    1932
CTETRA      3914       1     345     460     459     458
CTETRA      3915       1    1195    1128    2009    1129
CTETRA      3916       1    2387     256    2388    1462
CTETRA      3917       1    1546    4248    4251    4249
CTETRA      3918       1    2389    4080    4105    4106
CTETRA      3919       1     462     460    1195     386
CTETRA      3920       1     967     971      84    1193
CTETRA      3921       1    2390    2391    3740    3733
CTETRA      3922       1    5378    4243    4817    5866
CTETRA      3923       1     964     967     966     971
CTETRA      3924       1    2009     967    1631      84
CTETRA      3925       1      14    1945     209      11
CTETRA      3926       1      15     884     883     882
CTETRA      3927       1     282    1474    1981     208
CTETRA      3928       1    1463    4828    4813    4812
CTETRA      3929       1     257    1844    1717    1007
CTETRA      3930       1      24      19      25    1475
CTETRA      3931       1    3719    4207    4208    5747
CTETRA      3932       1    3714    5745    5744    4205
CTETRA      3933       1    1981     365    1982     882
CTETRA      3934       1      25     208    1474      12
CTETRA      3935       1     599     602     606     610
CTETRA      3936       1    1130    4274    1062    4673
CTETRA      3937       1     605    1682    1399     191
CTETRA      3938       1    1668     605    1400    1682
CTETRA      3939       1     191    1397    2088    2086
CTETRA      3940       1     599     603     601     600
CTETRA      3941       1     599     610    1302     600
CTETRA      3942       1    1367    5440    5441    5417
CTETRA      3943       1    2088     191    1682     605
CTETRA      3944       1    2341    3364    3388    3389
CTETRA      3945       1     599     606     605    1398
CTETRA      3946       1    5484    1374    1373    2392
CTETRA      3947       1    1374    1375    5438    1366
CTETRA      3948       1    1375    2393    1752    1366
CTETRA      3949       1    2394    4341    4340    4354
CTETRA      3950       1    2268    1366    2255    2393
CTETRA      3951       1    1374    2268    1366    1373
CTETRA      3952       1    2395    1077    1883    1082
CTETRA      3953       1    2395    1883    2396     350
CTETRA      3954       1     468      20    1321    1699
CTETRA      3955       1    2182    3377    5714    3383
CTETRA      3956       1    1834    1082     350    1883
CTETRA      3957       1    4399    1604    4407      66
CTETRA      3958       1    1375    3306    3327    3324
CTETRA      3959       1     827    1446    1447     826
CTETRA      3960       1    1611    1660    1618    1612
CTETRA      3961       1    1883     350    2397    2396
CTETRA      3962       1    1177    1883    1077    1836
CTETRA      3963       1    1883    2398    1836    1177
CTETRA      3964       1    1864    1460     562    1867
CTETRA      3965       1    2399    3883    3910    3884
CTETRA      3966       1     827    2398    1883    2397
CTETRA      3967       1     963    1477    1460    1867
CTETRA      3968       1    2400    1471    3687    2326
CTETRA      3969       1     690    1112    1109    1108
CTETRA      3970       1     895     898     893     899
CTETRA      3971       1    2401    4061    4111    4094
CTETRA      3972       1     895     166     903     402
CTETRA      3973       1     903     535    1061    1626
CTETRA      3974       1    2402    4273    1660    4266
CTETRA      3975       1     401     196    1000     400
CTETRA      3976       1    2061    3829    3828    3873
CTETRA      3977       1     166     902     895     535
CTETRA      3978       1    2314    3789    3790    3779
CTETRA      3979       1    2403    4695    4694    4796
CTETRA      3980       1     402     397     400    2213
CTETRA      3981       1     972    1427     996     973
CTETRA      3982       1     232     698     979     230
CTETRA      3983       1    2403    4796    1548    2404
CTETRA      3984       1     976     996     699     979
CTETRA      3985       1    1322     230     217     225
CTETRA      3986       1    4063    4109    1812    4110
CTETRA      3987       1     972     222     228     229
CTETRA      3988       1    2405    3564    3565    3563
CTETRA      3989       1    1422     229     232    1425
CTETRA      3990       1    1396    2375    1191    1624
CTETRA      3991       1     862    2406     825    2407
CTETRA      3992       1    2406    2407     862    1725
CTETRA      3993       1    1396    5809    4817    4243
CTETRA      3994       1    1191    4704    4815    4816
CTETRA      3995       1    1130    1062    4274    1131
CTETRA      3996       1    1970    4224    4207    4223
CTETRA      3997       1    2408    4270    2409    4272
CTETRA      3998       1    2298    1390    1725    2407
CTETRA      3999       1     825    1446    1442    2407
CTETRA      4000       1    2190    4799    4696    4695
CTETRA      4001       1    2381    4794    4798    4795
CTETRA      4002       1    2406    1390    1725    3583
CTETRA      4003       1    1625    5377    5376    5379
CTETRA      4004       1    2406    1390    3583    2410
CTETRA      4005       1    2406    1311    2411    1725
CTETRA      4006       1      99     888     108    2309
CTETRA      4007       1      99    2309     108     109
CTETRA      4008       1     875    2084     890     889
CTETRA      4009       1    5874    5875    4822    5316
CTETRA      4010       1    2388    1461    4832    4831
CTETRA      4011       1    2412    4187    4196    4197
CTETRA      4012       1     541     381    1023     371
CTETRA      4013       1    2309     409     541     108
CTETRA      4014       1    2413    4711    4678    4714
CTETRA      4015       1    2242    4737    4738    4728
CTETRA      4016       1    3603     769     768    2414
CTETRA      4017       1    1786    5561    5560    5584
CTETRA      4018       1     541    2146    2309    1822
CTETRA      4019       1    1282    3658    3659    3655
CTETRA      4020       1    1026    3649    3646    3648
CTETRA      4021       1      99     102     101    1808
CTETRA      4022       1     876     933    1833    2084
CTETRA      4023       1     875     876     887    2084
CTETRA      4024       1     541    2309    1458    1822
CTETRA      4025       1    1908    4908    4898    4905
CTETRA      4026       1    2049    4440    4438    4439
CTETRA      4027       1    1390    2406    2407    1446
CTETRA      4028       1    2114    4439    5836    5835
CTETRA      4029       1     826    1442    1447    2415
CTETRA      4030       1    1442     825     826    1446
CTETRA      4031       1     634    1258     825     637
CTETRA      4032       1    2416     275    3637    1026
CTETRA      4033       1     634    1259    1860    1862
CTETRA      4034       1     653    5302    5301    5837
CTETRA      4035       1     634    1862    1724    2078
CTETRA      4036       1    2411    3571    3581    1725
CTETRA      4037       1    2417    5314    5321    5332
CTETRA      4038       1    2418    3627    3626    3647
CTETRA      4039       1     264    5280    5278    5266
CTETRA      4040       1     825    2407    1442    1443
CTETRA      4041       1    1442    2407    1390     493
CTETRA      4042       1    1426    1660    1800    1802
CTETRA      4043       1    2419    1108      51    2420
CTETRA      4044       1    1109      51    1110    1108
CTETRA      4045       1     717     718    1273    1449
CTETRA      4046       1     372      92      89      93
CTETRA      4047       1     875     108     888     541
CTETRA      4048       1    5324    5316    4800    5875
CTETRA      4049       1    1241    2421    2405    2321
CTETRA      4050       1      94     718     717    1449
CTETRA      4051       1     717     322      95     924
CTETRA      4052       1     717    2422    1449    1273
CTETRA      4053       1    5374    4835    5868    5867
CTETRA      4054       1    2387    1843    1462    4814
CTETRA      4055       1     255    2423    1843    2387
CTETRA      4056       1    3515    2424    2425    3516
CTETRA      4057       1      92      95      93     372
CTETRA      4058       1     717     545    1449    2422
CTETRA      4059       1    5378    1624    1396    4243
CTETRA      4060       1     876    1833     887    2084
CTETRA      4061       1    2422     100     102    2277
CTETRA      4062       1     924      95     876     321
CTETRA      4063       1    2426    5795    4095    4096
CTETRA      4064       1     379      92      95     106
CTETRA      4065       1     843    5001    1260     845
CTETRA      4066       1    3978    2217    3979    4016
CTETRA      4067       1    1682    4301    4314    4300
CTETRA      4068       1     644     936    1324    1875
CTETRA      4069       1     935    1855     936    1875
CTETRA      4070       1    2316    4860    4852    4851
CTETRA      4071       1     644    2427    2050    1875
CTETRA      4072       1    2049    4444    4439    4438
CTETRA      4073       1     555      47      43     370
CTETRA      4074       1    3107    5170    5173    5669
CTETRA      4075       1     670    1184    1552    1555
CTETRA      4076       1    1668    4328    4320    4321
CTETRA      4077       1    1020     573     574    1019
CTETRA      4078       1     573    1661    1019    1020
CTETRA      4079       1    1362    5605    5717    5718
CTETRA      4080       1     573    1031    1020    1064
CTETRA      4081       1    2428    4368    4362    4373
CTETRA      4082       1     979    2429     978     976
CTETRA      4083       1    5066    5911    5068    5678
CTETRA      4084       1    1428    1587    1019    1429
CTETRA      4085       1     909    5076    5079    5078
CTETRA      4086       1    2430    3194    5151    5150
CTETRA      4087       1    1184     571     581     675
CTETRA      4088       1     962    4953    4961    4963
CTETRA      4089       1    1940    5618    1847    5617
CTETRA      4090       1    3154    5205    5676    5675
CTETRA      4091       1    2431    1940     290    2018
CTETRA      4092       1    1114    4170    4169    4171
CTETRA      4093       1    1940    5618    5907    1847
CTETRA      4094       1    2432    4451    4450    4871
CTETRA      4095       1    1770    4151    4150    4146
CTETRA      4096       1     527    5200    5201    5197
CTETRA      4097       1    1159    4164    4073    4072
CTETRA      4098       1    1116    4168    4172    4165
CTETRA      4099       1    2433    4089    4090    4074
CTETRA      4100       1    1843    2434    1842    4702
CTETRA      4101       1    2435    3629    3466    3467
CTETRA      4102       1    1893    5091    5090    5094
CTETRA      4103       1    2436    3252    3241    3254
CTETRA      4104       1     599     603     189     601
CTETRA      4105       1    1907    1302    2193    1297
CTETRA      4106       1    2182    2303    2304     873
CTETRA      4107       1     873    2182     874    2260
CTETRA      4108       1    2437    2438    2439    3874
CTETRA      4109       1     873    2311    2303    2304
CTETRA      4110       1    1028    1063    1224    1039
CTETRA      4111       1    1425    2215    1889    1577
CTETRA      4112       1    1843    2434    4702    4671
CTETRA      4113       1    1425    1990     231    1889
CTETRA      4114       1    1425    1613    1577    1801
CTETRA      4115       1    1008     257    1006    1844
CTETRA      4116       1     257     250    1717    1844
CTETRA      4117       1     249    1717     250    1845
CTETRA      4118       1    2194    4009    4007    4008
CTETRA      4119       1     795     794     786     258
CTETRA      4120       1     261    1411     262    1409
CTETRA      4121       1     794    1846    1714     367
CTETRA      4122       1     795     951     796    1408
CTETRA      4123       1     261     258     625     795
CTETRA      4124       1     320    2440    1118    1117
CTETRA      4125       1      10      14      15      11
CTETRA      4126       1    1534    4131    4132    4133
CTETRA      4127       1    1843    4702    1462    4814
CTETRA      4128       1      15     882     208     884
CTETRA      4129       1     938     267     937     934
CTETRA      4130       1     938     937     939     644
CTETRA      4131       1    5240    2441    1058    5216
CTETRA      4132       1    3649    3646    1025    1026
CTETRA      4133       1    2442    2346    3647    3639
CTETRA      4134       1    1970    2443    4223    4206
CTETRA      4135       1      12     212     937      11
CTETRA      4136       1    2335    3427    3432    3401
CTETRA      4137       1      26      18      25    1144
CTETRA      4138       1    2444    4754    4774    4772
CTETRA      4139       1     938     940     883     884
CTETRA      4140       1    2229    5478    2445    1481
CTETRA      4141       1    2229    2445    5480    2348
CTETRA      4142       1      88    2250    1860    2249
CTETRA      4143       1    2229    2269    2348    2349
CTETRA      4144       1    1502    1868     221    2183
CTETRA      4145       1    2298    3587    3577    3576
CTETRA      4146       1    2323      51    2181    2446
CTETRA      4147       1     221     223    2224    1842
CTETRA      4148       1    1502    1316     219    1870
CTETRA      4149       1    5332    1083    1081    5333
CTETRA      4150       1     221    1841     223    1842
CTETRA      4151       1    1675    1958    5245    5250
CTETRA      4152       1     963     219    1898    1867
CTETRA      4153       1    1864    1460    1463    1461
CTETRA      4154       1    1868    4701    4700    4812
CTETRA      4155       1    1314     219     217     221
CTETRA      4156       1     217     223     222     228
CTETRA      4157       1     217    1322     224    1314
CTETRA      4158       1    1706    1558     161    2447
CTETRA      4159       1    2448    2449    3722    3724
CTETRA      4160       1     152     150     156     891
CTETRA      4161       1     171    1566    1508    1509
CTETRA      4162       1    1578    1509    1508    2447
CTETRA      4163       1    1558    1560    1557    1578
CTETRA      4164       1    2053    1560    2447    1509
CTETRA      4165       1    2450    5348    5332    5321
CTETRA      4166       1    1578    1557    1342    1560
CTETRA      4167       1     608    2451     613    1852
CTETRA      4168       1       7     185    1942     281
CTETRA      4169       1     430    3538    5364    5842
CTETRA      4170       1     607     871     614    1519
CTETRA      4171       1     871     873    2115    1517
CTETRA      4172       1    2375    4834    4817    4816
CTETRA      4173       1    1851    1708     325    1686
CTETRA      4174       1    1511     872     614    1906
CTETRA      4175       1    1606     325    1511    1708
CTETRA      4176       1     540     284     530     319
CTETRA      4177       1     872    1910     874     540
CTETRA      4178       1    1780    3129    3130    4149
CTETRA      4179       1    2452    4173    4174    4176
CTETRA      4180       1    1910    1512     319     872
CTETRA      4181       1    1813    5676    5203    3115
CTETRA      4182       1    2069    3947    5634    4009
CTETRA      4183       1     314    5614     316    5591
CTETRA      4184       1    1283    2453    2454    3723
CTETRA      4185       1    5590    2044    1090     314
CTETRA      4186       1    1525    2044     314    1527
CTETRA      4187       1    2369    4055    4059    4048
CTETRA      4188       1    3175    5669    5173    5670
CTETRA      4189       1    3122    1492    1510    1818
CTETRA      4190       1    2043     312    1090    1928
CTETRA      4191       1    1931    1928    1090    2044
CTETRA      4192       1    4151    1485    4136    1770
CTETRA      4193       1    1929     314    2044    1527
CTETRA      4194       1    1928    1929     314    2044
CTETRA      4195       1    2455    2456    5103    5113
CTETRA      4196       1    4000    2457    1746    1744
CTETRA      4197       1     751     753    2458     752
CTETRA      4198       1     211    5144    5147    5148
CTETRA      4199       1    1905    1572    1819    2459
CTETRA      4200       1     753    2458    2244    1232
CTETRA      4201       1    2460    2461    2237     408
CTETRA      4202       1    2008     441    2462    2463
CTETRA      4203       1    2008    1013     990    2462
CTETRA      4204       1    2464    5171    5169    5170
CTETRA      4205       1     868    1479     992     439
CTETRA      4206       1    1969    1970    4206    2443
CTETRA      4207       1     438    1011     439     992
CTETRA      4208       1     438    1013    2008     441
CTETRA      4209       1    1181    5102    2465    5099
CTETRA      4210       1    2466    3287    3302    3294
CTETRA      4211       1     404     868     438     439
CTETRA      4212       1    2467    5064    5069    5065
CTETRA      4213       1    1989    2163    2289    2468
CTETRA      4214       1    1989    2468     446    2163
CTETRA      4215       1     522    1999    3933    3940
CTETRA      4216       1     839     837     836    1989
CTETRA      4217       1     447    1140    1332    1988
CTETRA      4218       1    2375    1191    4835    4816
CTETRA      4219       1    1339    1301    4210    2469
CTETRA      4220       1    1338    1283    3680    1284
CTETRA      4221       1    1601     448    1596    2216
CTETRA      4222       1    1834    1369    1962    1370
CTETRA      4223       1    1502    1504     219    1867
CTETRA      4224       1    1102    1757    1106    2470
CTETRA      4225       1    2094    2467     582    2471
CTETRA      4226       1    2354     501    2472    2125
CTETRA      4227       1     456    2473     737     736
CTETRA      4228       1     456    2473     453    1971
CTETRA      4229       1    1919     458     457     455
CTETRA      4230       1    2474    4954    4957    4953
CTETRA      4231       1    2125    2180    1327    1325
CTETRA      4232       1     501     139    2125    2354
CTETRA      4233       1    2375    5377    1624    5378
CTETRA      4234       1     456    2473     736    1325
CTETRA      4235       1    1606    1605    1603     518
CTETRA      4236       1    1605    1686    1690    1688
CTETRA      4237       1    1606    1605    1690    1603
CTETRA      4238       1     328      67    1912     518
CTETRA      4239       1    1306    5214    4706    5887
CTETRA      4240       1    1857    5306    5307    5834
CTETRA      4241       1     328    1605    1912    1915
CTETRA      4242       1    1605     328     325    1915
CTETRA      4243       1    1048    1540    2475    1953
CTETRA      4244       1    1686    1605    1708     325
CTETRA      4245       1    1912     518    2155    1605
CTETRA      4246       1    1602    1912     518    2155
CTETRA      4247       1    2375    5867    5378    4834
CTETRA      4248       1     815     819     816     821
CTETRA      4249       1    1406    4719    4717    4716
CTETRA      4250       1    1411    5278    5274    5265
CTETRA      4251       1    2427    4413    4420    4421
CTETRA      4252       1    2476    4719    4721    4720
CTETRA      4253       1     808     809    1696    1721
CTETRA      4254       1    1857    5835    2336    2114
CTETRA      4255       1    1274    1696    1753    1750
CTETRA      4256       1    1304    1408    1305    2477
CTETRA      4257       1     116     110     120     124
CTETRA      4258       1     809     806     678    1153
CTETRA      4259       1    1153    1721     806    2372
CTETRA      4260       1    5542    5541     904    5565
CTETRA      4261       1    1721    2478    1153     809
CTETRA      4262       1     809    1696    1721    2478
CTETRA      4263       1    2479    5839    5838    4447
CTETRA      4264       1    2480    2481    2482    4432
CTETRA      4265       1     210    1715    5306    5304
CTETRA      4266       1     651    5282    5219    5218
CTETRA      4267       1    1917    2414     778     591
CTETRA      4268       1    1917    1919    2414    2483
CTETRA      4269       1     455    2180     456     736
CTETRA      4270       1     859    2180    1918    2181
CTETRA      4271       1    1919     457    2179    1979
CTETRA      4272       1     457    1917    1979    1919
CTETRA      4273       1    1917    1919    2483    1979
CTETRA      4274       1    1968    1917    2484     463
CTETRA      4275       1      80     426    1640    2442
CTETRA      4276       1    2485    5303    5302    5838
CTETRA      4277       1     207    2335    2117    2334
CTETRA      4278       1     591    1917    2484    1968
CTETRA      4279       1      64      65      70      73
CTETRA      4280       1    4772    1190    1189    1192
CTETRA      4281       1      62    1009     382     385
CTETRA      4282       1      73    1070    2265    2262
CTETRA      4283       1    2370      72      70    2263
CTETRA      4284       1    1478    3418    5729    3419
CTETRA      4285       1     917     711    1142    1141
CTETRA      4286       1    1438    4317    4318    5680
CTETRA      4287       1    2071    4318    4319    5679
CTETRA      4288       1    5679     582    2094    3300
CTETRA      4289       1     143    1957     147    2486
CTETRA      4290       1     143    2355    2487    2488
CTETRA      4291       1     728    1954    2489     731
CTETRA      4292       1     148     147     143    1957
CTETRA      4293       1    2490    4945    4941    4898
CTETRA      4294       1     143    2488    1943    2355
CTETRA      4295       1    5679    2491    5678    4319
CTETRA      4296       1     712    2492    1650     710
CTETRA      4297       1    1521    2493    2230    4336
CTETRA      4298       1    1642    1648    1137    1139
CTETRA      4299       1     707    1142    1166     578
CTETRA      4300       1     703     712     710     709
CTETRA      4301       1    5061    3266    5657    3277
CTETRA      4302       1    5066    5678    4319    5911
CTETRA      4303       1    1439    5680    5681    4317
CTETRA      4304       1     712    2494     710     709
CTETRA      4305       1    5652    5678    5068    5911
CTETRA      4306       1     582    5068    3296    5678
CTETRA      4307       1    2027    5681    3298    3303
CTETRA      4308       1     711     706     703     710
CTETRA      4309       1     772    2495     754      59
CTETRA      4310       1      58    1537     772      59
CTETRA      4311       1    1642     707    1650    1643
CTETRA      4312       1    1650    1141    2496    2497
CTETRA      4313       1    1650    1643    1141    2497
CTETRA      4314       1    3347     163    2498    3349
CTETRA      4315       1    1465    5475    5498    5499
CTETRA      4316       1    1494    2045    1788    1487
CTETRA      4317       1    2045    1494    5468    1777
CTETRA      4318       1    2045    1777    5466    2195
CTETRA      4319       1    2045    5420    2499    5419
CTETRA      4320       1    5419    2045    1367    2499
CTETRA      4321       1    5420    5693    3329    5692
CTETRA      4322       1    1088    2042     312    1089
CTETRA      4323       1    5548     598     596    1087
CTETRA      4324       1     597    1847    5595    5594
CTETRA      4325       1    1089    1482     598    2092
CTETRA      4326       1    5419    5692    3329    3332
CTETRA      4327       1    1088    1090    2042     315
CTETRA      4328       1     596     597    2042    1089
CTETRA      4329       1     598    1848     597    1089
CTETRA      4330       1    2091    1927    1089     312
CTETRA      4331       1     597    2042    1089    2100
CTETRA      4332       1    2139    5528    5527    5551
CTETRA      4333       1    2499    3329    3331    3332
CTETRA      4334       1    2499    3331    3329    3328
CTETRA      4335       1     714     310     303     277
CTETRA      4336       1     714    1068    1669    1076
CTETRA      4337       1    1069    1073    1125    1124
CTETRA      4338       1     912    1071    1068    1069
CTETRA      4339       1    1069    1068     912    1157
CTETRA      4340       1    1069    1669    1068    1157
CTETRA      4341       1    2088    1401    4344    4350
CTETRA      4342       1    1397    1398    1401    2087
CTETRA      4343       1    2087    1401    2493    1398
CTETRA      4344       1    1401    2088    2087    4351
CTETRA      4345       1    5433    5705    5706    3317
CTETRA      4346       1    5707    3319    5912    5899
CTETRA      4347       1    2500    5295    5294    5298
CTETRA      4348       1    5912    3313    5899    3319
CTETRA      4349       1    1235    1217     216    2501
CTETRA      4350       1    1235    2502    2503    2504
CTETRA      4351       1    2503    1235    1217    1236
CTETRA      4352       1    1217    2503    1312    2501
CTETRA      4353       1    2002    1113    2505    1997
CTETRA      4354       1    2393    5435    5412    5899
CTETRA      4355       1    1119    2006    1113     587
CTETRA      4356       1    2002    2201    1113    2006
CTETRA      4357       1    2506    5132    2507    1876
CTETRA      4358       1    2002    2505    1113    2201
CTETRA      4359       1    1026    3650    3649    3648
CTETRA      4360       1    1113     797    2239    2505
CTETRA      4361       1     593    2002    2001    1730
CTETRA      4362       1      39    1221    1394      37
CTETRA      4363       1     570    1075    2130     567
CTETRA      4364       1    1482    5500    5499    5523
CTETRA      4365       1    1394     787    1006    1221
CTETRA      4366       1    1644    3672    3839    3673
CTETRA      4367       1    2403    4662    4694    4663
CTETRA      4368       1     787    1113    1997     781
CTETRA      4369       1     781     797    2239    1113
CTETRA      4370       1    1007    1006    1844    1998
CTETRA      4371       1    2375    5374    5867    4835
CTETRA      4372       1    2254    1363    2508    2367
CTETRA      4373       1    2509    5703    3311    3348
CTETRA      4374       1    2253    2097    1481    1365
CTETRA      4375       1    1490    1376    1487    1489
CTETRA      4376       1    2510    2511    2436    2512
CTETRA      4377       1    2253    1489    2254    2255
CTETRA      4378       1    2253    2254     616    1365
CTETRA      4379       1    2398    1836    2513    2020
CTETRA      4380       1    2398    1446    1389    1447
CTETRA      4381       1    2398    1447    2514    2397
CTETRA      4382       1    5426    3343    5698    5699
CTETRA      4383       1    5418    5691    3332    3325
CTETRA      4384       1    1883    1836    2398    2020
CTETRA      4385       1    2499    3331    3325    3332
CTETRA      4386       1     827    1446    2398    1447
CTETRA      4387       1     827    1446     860    2020
CTETRA      4388       1    5419    5692    3332    5691
CTETRA      4389       1    1012    1749     559    1013
CTETRA      4390       1    1012    1013     441    1749
CTETRA      4391       1    2232    5555    5578    5579
CTETRA      4392       1    1011     594     761    1878
CTETRA      4393       1    1879    1011     594     761
CTETRA      4394       1    1879    2046    2515    2516
CTETRA      4395       1    1520    1519    1517    4380
CTETRA      4396       1    5427    5699    5700    3350
CTETRA      4397       1    1519    1517    4380    4293
CTETRA      4398       1     871    1907    1518    1521
CTETRA      4399       1     871    1518    1907     528
CTETRA      4400       1    1062    2517    2408    2402
CTETRA      4401       1    1518    1519    2320    1517
CTETRA      4402       1    3350    3343    3349    2498
CTETRA      4403       1     612    1519    2154    1521
CTETRA      4404       1     607     871    1519    1521
CTETRA      4405       1     874    1796    1910    2260
CTETRA      4406       1     607    1519     612    1521
CTETRA      4407       1    1787    3320    5695    5696
CTETRA      4408       1    1511     614    1851    1906
CTETRA      4409       1    1519    1520    1869    4380
CTETRA      4410       1    1851    1520    1869     613
CTETRA      4411       1    1906     530     872     607
CTETRA      4412       1     607     609     608    1906
CTETRA      4413       1    1857    5306    5834    5835
CTETRA      4414       1    1606    1511     319    1512
CTETRA      4415       1     265     260    2518     817
CTETRA      4416       1     249     257     250    1717
CTETRA      4417       1     263    2132     993     818
CTETRA      4418       1    2506    5132    1876    5138
CTETRA      4419       1    2042    1927    1928     312
CTETRA      4420       1    2336    4439    5835    5834
CTETRA      4421       1     597    5570     315    5593
CTETRA      4422       1    1929    1847     315     316
CTETRA      4423       1     316     315    5593    1847
CTETRA      4424       1     632    3359    2416    3633
CTETRA      4425       1     850     677    1198    1150
CTETRA      4426       1    1973    4726    2519    5833
CTETRA      4427       1     677    1150     336     678
CTETRA      4428       1     813     679    1288    2520
CTETRA      4429       1    2110    4476    4676    4677
CTETRA      4430       1    1689    4856    4857    4842
CTETRA      4431       1     820     810     725     813
CTETRA      4432       1    2052     154    2521    1522
CTETRA      4433       1     813     810     811     820
CTETRA      4434       1     813     821    2520     820
CTETRA      4435       1    1062    2517    4672    4653
CTETRA      4436       1     642    4429    4421    4428
CTETRA      4437       1    2479    5838    4446    4447
CTETRA      4438       1    1369    1700    2522    1870
CTETRA      4439       1    1062    4273    1131    2402
CTETRA      4440       1     653    5837    5836    4445
CTETRA      4441       1    1700    2523    1703    1962
CTETRA      4442       1    1473    3418    3401    5730
CTETRA      4443       1    2112    2519    4676    2111
CTETRA      4444       1    1369    1370    1885    1504
CTETRA      4445       1     597    1847    5594    5593
CTETRA      4446       1    4332    5774    5775    3368
CTETRA      4447       1    1702    1700    1697     470
CTETRA      4448       1     360    1838    1307    1698
CTETRA      4449       1    1834    1703    2022    1962
CTETRA      4450       1      48    1347     348     347
CTETRA      4451       1    1933    1232     753    2244
CTETRA      4452       1    2524    5133    2506    5139
CTETRA      4453       1    2069    3996    2194    2074
CTETRA      4454       1     349    1347     347     348
CTETRA      4455       1    2105    5680    3299    3298
CTETRA      4456       1    2525    2506    2524    2526
CTETRA      4457       1    1347    1346    2344    1350
CTETRA      4458       1    1439    5682    4311    5681
CTETRA      4459       1    1347     348     215    1933
CTETRA      4460       1    5682    5681    1439    3303
CTETRA      4461       1    1347      47    2527    2344
CTETRA      4462       1    1347     465    1350     472
CTETRA      4463       1    1350     348     215    1347
CTETRA      4464       1    2528    3285    3261    3260
CTETRA      4465       1    1467    5517    5494    5493
CTETRA      4466       1      72    2529    2530    2531
CTETRA      4467       1      72     553    2265    2529
CTETRA      4468       1      72    2352      71    2531
CTETRA      4469       1    1406    4715    4721    4716
CTETRA      4470       1    2114    5836    5306    5835
CTETRA      4471       1    2532    5298    1947    5303
CTETRA      4472       1    2476    4721    4722    4720
CTETRA      4473       1    1406    4712    4716    4717
CTETRA      4474       1    5384    2533    1576    2534
CTETRA      4475       1    2352      72    2530    2531
CTETRA      4476       1    5380    5385    4258    5895
CTETRA      4477       1      73    2263      72    2265
CTETRA      4478       1      72    2265    2263    2353
CTETRA      4479       1      72    2370      71    2351
CTETRA      4480       1    1638    5371    1476    5359
CTETRA      4481       1     256     255    1462    2387
CTETRA      4482       1    1638     256    1627    1628
CTETRA      4483       1    1460    1638    1476     254
CTETRA      4484       1     253    1638     256    2388
CTETRA      4485       1    1638    2388    1476    5371
CTETRA      4486       1    1903     237    2430    2506
CTETRA      4487       1     411    1022    1589    2145
CTETRA      4488       1    1628    5361    5369    5360
CTETRA      4489       1    2533    4258    5380    5385
CTETRA      4490       1    2145     411    2535    1654
CTETRA      4491       1    2459    1572    3198    2261
CTETRA      4492       1    5380    4263    5894    5895
CTETRA      4493       1    2081    2536     411    2535
CTETRA      4494       1    2536     409     411    2146
CTETRA      4495       1    2145    2536    2146    2307
CTETRA      4496       1    2145    2536    2307    2537
CTETRA      4497       1    1639    1051     785     427
CTETRA      4498       1      80      82    2418    1640
CTETRA      4499       1    5381    5893    5894    4263
CTETRA      4500       1      80    2538      78    2284
CTETRA      4501       1     118      81     618    1091
CTETRA      4502       1    2228     694     864     630
CTETRA      4503       1      74    1861      88      87
CTETRA      4504       1     630     639     628     864
CTETRA      4505       1    2539    1877    3206    2261
CTETRA      4506       1     629     634     637    1258
CTETRA      4507       1     512    1213     823     511
CTETRA      4508       1    2540    3193    2459    3192
CTETRA      4509       1    1091    1163     119    1640
CTETRA      4510       1     734     124    1974     780
CTETRA      4511       1     618    1974    2541     123
CTETRA      4512       1     925    1484    2542    1770
CTETRA      4513       1     618    1004     822     823
CTETRA      4514       1     124    1974     618     123
CTETRA      4515       1     118     618     822     823
CTETRA      4516       1    1692    1924    1824    1826
CTETRA      4517       1    3121    5650    4056    3117
CTETRA      4518       1    1766    2542    1783    3113
CTETRA      4519       1     829    2038    2039    1691
CTETRA      4520       1     352     829    1692    1963
CTETRA      4521       1    1692    1691    1824    1924
CTETRA      4522       1     824     829    1692     352
CTETRA      4523       1    1692    2543     353     351
CTETRA      4524       1    3123    4152    5623    5622
CTETRA      4525       1    2544    5194    5189    5190
CTETRA      4526       1     718     719     720     721
CTETRA      4527       1     718    1273    1669    2545
CTETRA      4528       1     718    2545    2360    1117
CTETRA      4529       1     718     320    1117    2452
CTETRA      4530       1    3124    5624    5623    4152
CTETRA      4531       1     718     861     321    2452
CTETRA      4532       1     718    2546     720     719
CTETRA      4533       1     718    2360     720    2546
CTETRA      4534       1     877     918    2173     911
CTETRA      4535       1      61     918     877     911
CTETRA      4536       1    2547    2548    1529      35
CTETRA      4537       1    1983    2173     877     918
CTETRA      4538       1    1072    2549     299    2550
CTETRA      4539       1    1073    1072    2551     912
CTETRA      4540       1    3269    3961    5629    3963
CTETRA      4541       1    1071     299    2549     307
CTETRA      4542       1     306     310    1073     309
CTETRA      4543       1    2159    5046    4994    5045
CTETRA      4544       1    2105    3297    3298    3299
CTETRA      4545       1    2029    2027    2108     899
CTETRA      4546       1    4260    5386    5897    4259
CTETRA      4547       1    1576    5368    5367    5383
CTETRA      4548       1    2533    5380    4258    4263
CTETRA      4549       1    2533    5379    5380    5381
CTETRA      4550       1     948    1549    1424     950
CTETRA      4551       1    1071    1072    2549     299
CTETRA      4552       1    5380    5381    5894    4263
CTETRA      4553       1     912    1072    2551    2433
CTETRA      4554       1    1072    1162    2433    1895
CTETRA      4555       1    1449    2552     545    2553
CTETRA      4556       1     545    2422    2554    1449
CTETRA      4557       1    5386    5897    4259    5385
CTETRA      4558       1    2261    3196    3206    3197
CTETRA      4559       1     277     713      98      94
CTETRA      4560       1      94     718    1669     720
CTETRA      4561       1    1449    1273    2555    1669
CTETRA      4562       1     299     298    2345     308
CTETRA      4563       1    1072     299     309     297
CTETRA      4564       1    1072    2556    2557    2558
CTETRA      4565       1    1595    1495    1496    3539
CTETRA      4566       1    1072     299     297    2556
CTETRA      4567       1     298     300     304     308
CTETRA      4568       1     249     260     266    2518
CTETRA      4569       1     261     795    1445    1409
CTETRA      4570       1     257    1846     786    1997
CTETRA      4571       1    1714     365     367    1846
CTETRA      4572       1     257    1844    1008     250
CTETRA      4573       1     251     951     258     262
CTETRA      4574       1    1502    1867    1505    1504
CTETRA      4575       1    1502    1867    1864    1505
CTETRA      4576       1     220     219    1898     963
CTETRA      4577       1    1813    3129    3113    3114
CTETRA      4578       1    1818    4147    3123    3128
CTETRA      4579       1     828    1883    2020    1836
CTETRA      4580       1     219    1316    1321    1870
CTETRA      4581       1    3123    5622    4147    4152
CTETRA      4582       1    1813    3154    3115    3114
CTETRA      4583       1     645    3127    3119    3111
CTETRA      4584       1    4145    5782    3115    5202
CTETRA      4585       1    4148    5620    5621    3128
CTETRA      4586       1     470    2066    1870    1315
CTETRA      4587       1     563    1504    1867    2559
CTETRA      4588       1    1885    2560    2559    1504
CTETRA      4589       1    2559    1504    1867    1885
CTETRA      4590       1    2561    1867    1477     963
CTETRA      4591       1    1867    1460     562    1477
CTETRA      4592       1     219     218     963     220
CTETRA      4593       1    2562    4308    4304    4307
CTETRA      4594       1    1316    1870    1871    1315
CTETRA      4595       1    1867     963    2561    1898
CTETRA      4596       1     218    1864    1841     221
CTETRA      4597       1    5832    4319    5911    5066
CTETRA      4598       1    2491     582    2094    5679
CTETRA      4599       1    4328    4919    5830    5829
CTETRA      4600       1    4327    4922    5827    4923
CTETRA      4601       1    1266    4980    4936    4935
CTETRA      4602       1    1502     219    1369    1870
CTETRA      4603       1     887     886    2084    2083
CTETRA      4604       1    2563    2564    4632    4615
CTETRA      4605       1    4327    5828    5827    4922
CTETRA      4606       1    1829    1884    4189    4214
CTETRA      4607       1    4369    4915    4925    5824
CTETRA      4608       1     371    1434    1451    2129
CTETRA      4609       1    2565    4561    4559    4560
CTETRA      4610       1    2566    2567    1720    2568
CTETRA      4611       1    2569    1020    2144    2570
CTETRA      4612       1    2569    2571    1020    2570
CTETRA      4613       1    1720    1583    2572    2569
CTETRA      4614       1     900    2573    2104    2103
CTETRA      4615       1    1438    4318    5679    5680
CTETRA      4616       1     900    2573     898    2104
CTETRA      4617       1     475    2573     898     900
CTETRA      4618       1     199    1850     900    2094
CTETRA      4619       1    2164    5718    5717    3444
CTETRA      4620       1     370     369    2574      47
CTETRA      4621       1     370    2180    2181    2575
CTETRA      4622       1      46      47     347     369
CTETRA      4623       1     370     369     859    2180
CTETRA      4624       1      43    2181      51     555
CTETRA      4625       1    2493    4335    4348    4352
CTETRA      4626       1    4396    5820    4862    4855
CTETRA      4627       1    1517    4337    4292    4293
CTETRA      4628       1    2576    4924    4923    4927
CTETRA      4629       1      49      48      47    1347
CTETRA      4630       1    2319    3370    3379    5773
CTETRA      4631       1     858     859     458    2178
CTETRA      4632       1    2148    4296    2149    4926
CTETRA      4633       1     328    1915    1913     324
CTETRA      4634       1    1913     324    1413    1405
CTETRA      4635       1    2577    3352    3353    3369
CTETRA      4636       1    1915    1912    2316    2578
CTETRA      4637       1    1915     324     325     326
CTETRA      4638       1    1915    1686    2579     326
CTETRA      4639       1    1298    1333    1299    1284
CTETRA      4640       1    1298    1832    1333    1334
CTETRA      4641       1    1298    2580    1284    1301
CTETRA      4642       1    1298    4200    2580    1301
CTETRA      4643       1    1923    5604     287    1362
CTETRA      4644       1    4296    5826    4925    4926
CTETRA      4645       1      16      24    1714    1717
CTETRA      4646       1     266    1203    2518     617
CTETRA      4647       1    1203    2518     617    2500
CTETRA      4648       1     249     265    2518     425
CTETRA      4649       1    1717    1844    1845      19
CTETRA      4650       1     263     422    2132     421
CTETRA      4651       1    2267    1829    2581    2582
CTETRA      4652       1    1736    1900    1896     220
CTETRA      4653       1    1736    1896    1900    2583
CTETRA      4654       1    1736    2106    2583    2584
CTETRA      4655       1    4417    4865    5817    5816
CTETRA      4656       1    4853    2233    2234    4846
CTETRA      4657       1    1735    2585    1763    1739
CTETRA      4658       1    1735     225    1736    1738
CTETRA      4659       1    1763    2586    2587    2585
CTETRA      4660       1    2317    4859    4853    4861
CTETRA      4661       1    1736    1737    2106    2584
CTETRA      4662       1    1736    1738    2106    1737
CTETRA      4663       1    2431    5708    5913    1147
CTETRA      4664       1    2018    2431    5708    5709
CTETRA      4665       1     279    1320    1146    1317
CTETRA      4666       1    2363    2204    4847    4850
CTETRA      4667       1    2431     290    1795    2018
CTETRA      4668       1    2588    2431     290    1795
CTETRA      4669       1     133     657     405       5
CTETRA      4670       1    2140    2431    1940     290
CTETRA      4671       1    1940    2018    2431    1147
CTETRA      4672       1    1824     829    2589    1691
CTETRA      4673       1    1824    2347    1826    1924
CTETRA      4674       1    1824    2590     829     638
CTETRA      4675       1    4388    5768    5769    3376
CTETRA      4676       1    1824     829    2590    2589
CTETRA      4677       1    4417    5817    4865    4866
CTETRA      4678       1    1465     312     904    1466
CTETRA      4679       1    2091     550    1782    1467
CTETRA      4680       1     615    5495     552    1467
CTETRA      4681       1     615    2142    5495    1467
CTETRA      4682       1    1041    3226    3223    3215
CTETRA      4683       1     985    1096     495     661
CTETRA      4684       1    1098     494    1269     361
CTETRA      4685       1    1098     985    1096     495
CTETRA      4686       1     987     435     985    1097
CTETRA      4687       1    1093    1097     362     985
CTETRA      4688       1    4396    5820    5819    4862
CTETRA      4689       1     561    1750     560    1751
CTETRA      4690       1     985     172     173     984
CTETRA      4691       1    1098     362     361    1269
CTETRA      4692       1     488    1042    1591    1569
CTETRA      4693       1     496    1171    1903    1909
CTETRA      4694       1    4910    4842    2209    4841
CTETRA      4695       1     488    1591    1568    1569
CTETRA      4696       1    1591    1569    1042    2591
CTETRA      4697       1    4403    4862    5818    4863
CTETRA      4698       1    1112    1108    2420     357
CTETRA      4699       1    2419    1112     692    1108
CTETRA      4700       1    1112    2420    1108    2419
CTETRA      4701       1    1356    1358    5721    5720
CTETRA      4702       1    2592    3400    3417    3411
CTETRA      4703       1    3427    2334    3426    3428
CTETRA      4704       1     722     633     664     817
CTETRA      4705       1    1548    1112     357    1755
CTETRA      4706       1    1189    1112    2419    1500
CTETRA      4707       1     692    1189     640    1112
CTETRA      4708       1    2593    3412    3417    3418
CTETRA      4709       1    2592    3412    3411    3417
CTETRA      4710       1    1112    1501    1755    1548
CTETRA      4711       1     617    5297    5291    5290
CTETRA      4712       1     275    3638    3639    3634
CTETRA      4713       1     210    5836    5301    5306
CTETRA      4714       1    1112    1501    2590    1755
CTETRA      4715       1     863    1112     638     640
CTETRA      4716       1     653    5837    5301    5836
CTETRA      4717       1     210    5304    5306    5301
CTETRA      4718       1    1112    1189     640     863
CTETRA      4719       1    2335    3401    3417    3400
CTETRA      4720       1    2117    3421    3428    3399
CTETRA      4721       1     690     640    1112     692
CTETRA      4722       1    1494    5446     206    1787
CTETRA      4723       1    2045    1487    1493    1376
CTETRA      4724       1    1490    1493    1487    1376
CTETRA      4725       1    1759    2502    2594    2595
CTETRA      4726       1    2234    4845    4852    4846
CTETRA      4727       1    1487    1489    2366    1491
CTETRA      4728       1     205    1363    1489    1491
CTETRA      4729       1    1357    1359    5719    5718
CTETRA      4730       1    1359    1358    5720    2025
CTETRA      4731       1     292    1799     288     290
CTETRA      4732       1    1359    5717     296    2364
CTETRA      4733       1    2503    1759    1831    2596
CTETRA      4734       1    4726    5891    5833    1973
CTETRA      4735       1     866    2364     529    1296
CTETRA      4736       1    2581    2582    4204    4187
CTETRA      4737       1     515    2597    3367    4388
CTETRA      4738       1    4424    4865    5815    4859
CTETRA      4739       1     515    4383    2598     520
CTETRA      4740       1     515    2598    3367    3386
CTETRA      4741       1    2599    4440    4441    4437
CTETRA      4742       1     514     515    2041    1910
CTETRA      4743       1     515    2597    4388    2041
CTETRA      4744       1     329    1606     319     514
CTETRA      4745       1     327     584     329     538
CTETRA      4746       1    1464     996    2600    1252
CTETRA      4747       1    2047    2480    2338    2363
CTETRA      4748       1    1464    1252     979     996
CTETRA      4749       1    2385    4078    2601    2386
CTETRA      4750       1    1427    1800    1464    1803
CTETRA      4751       1    1464     996    1803    2600
CTETRA      4752       1    1422    1800    1427    1426
CTETRA      4753       1    2482    4422    4421    4429
CTETRA      4754       1    1203    2602    1845    2518
CTETRA      4755       1    2603    4426    4446    4443
CTETRA      4756       1    2604    2267     977     700
CTETRA      4757       1    2605    4404    4412    4405
CTETRA      4758       1    2604    2267    2606     977
CTETRA      4759       1    2604    2222    2607    2563
CTETRA      4760       1    2604    2608    2563    2609
CTETRA      4761       1    4404    5764    3392    3391
CTETRA      4762       1    2604     977    2607    2222
CTETRA      4763       1    1375    5415    5439    5416
CTETRA      4764       1    5544    1088     311    5545
CTETRA      4765       1    1210    3373    5712    3366
CTETRA      4766       1    2604     977    2606    2609
CTETRA      4767       1    4404    5763    5764    3391
CTETRA      4768       1    2048    2047    2610    2338
CTETRA      4769       1    2048    2599    2363    2338
CTETRA      4770       1    4418    3388    5761    5762
CTETRA      4771       1    4411    5763    3391    5762
CTETRA      4772       1    1858     940     939     945
CTETRA      4773       1    2047    1858    2111    2048
CTETRA      4774       1     649    1713    2048    1857
CTETRA      4775       1    2048    2599    2338    2336
CTETRA      4776       1    2048    1713    2112    1857
CTETRA      4777       1    1712     318    2611    2490
CTETRA      4778       1    5418    3325    5690    5691
CTETRA      4779       1    2025    3461    5720    5719
CTETRA      4780       1    2207    2490    1712    2058
CTETRA      4781       1    1303    1711    2612    2058
CTETRA      4782       1    5420    5693    3328    3329
CTETRA      4783       1    2056    2612    1303    1711
CTETRA      4784       1    2499    3322    3323    3331
CTETRA      4785       1     194    2126    2613     198
CTETRA      4786       1     604    1297    2126    1296
CTETRA      4787       1    5412    5899    5912    3313
CTETRA      4788       1     604    1297    2086    2126
CTETRA      4789       1    5445    1788    5421    5422
CTETRA      4790       1     190     198     194     200
CTETRA      4791       1     190     193     200     195
CTETRA      4792       1    2126     194     604    1296
CTETRA      4793       1     834     668    1171    1415
CTETRA      4794       1    1432    1663    5146    1874
CTETRA      4795       1    1432    1658    1874    1656
CTETRA      4796       1    1432    1656     783    1419
CTETRA      4797       1    1655     672     573     669
CTETRA      4798       1    1062    2423    4672    2517
CTETRA      4799       1     622    3356    3416    3413
CTETRA      4800       1    1428    1587    1430    1459
CTETRA      4801       1    1240     854    2614     779
CTETRA      4802       1    3346    5428    5429    5701
CTETRA      4803       1    1130    1062    1131    2423
CTETRA      4804       1    2615    1309    2614    1310
CTETRA      4805       1    1309    2614    1310    1240
CTETRA      4806       1    2229    5502    5503    5479
CTETRA      4807       1    5428    5701    3346    3347
CTETRA      4808       1    1619    2616    2617    1125
CTETRA      4809       1    1368    1377    5464    5463
CTETRA      4810       1    2618    5509    5508    5532
CTETRA      4811       1    1593    4251    1564    4252
CTETRA      4812       1    3328    5420    5421    5693
CTETRA      4813       1     854    1240    2619     851
CTETRA      4814       1    2614    1240    2619     854
CTETRA      4815       1      52    1240     854     857
CTETRA      4816       1    2620    2621    4076    4082
CTETRA      4817       1    1109    1108     357      51
CTETRA      4818       1    1239    1309    1241    1308
CTETRA      4819       1    5425    3344    5698    3343
CTETRA      4820       1    2601    2617    4103    4077
CTETRA      4821       1    2445    2622    2342    3316
CTETRA      4822       1    2229    2445    2348    1481
CTETRA      4823       1    2045    5443    5466    5467
CTETRA      4824       1    2445    1481    5455    2342
CTETRA      4825       1    5900    2348    5457    1383
CTETRA      4826       1    2623    2624    5097    2625
CTETRA      4827       1    2348    5457    1383    2445
CTETRA      4828       1    2445    2348    5457    5480
CTETRA      4829       1    5433    5432    2342    2445
CTETRA      4830       1     758     762     766     765
CTETRA      4831       1    1814    1385    1387    3161
CTETRA      4832       1    2626    5201    5200    5189
CTETRA      4833       1     763    1225    2127     762
CTETRA      4834       1    4147    5621    5622    3128
CTETRA      4835       1    1944    1968    2627     463
CTETRA      4836       1    2125    2472    2180     501
CTETRA      4837       1    2616    2628    4102    1125
CTETRA      4838       1    1453    4053    1455    4043
CTETRA      4839       1     844    5023    2555    5003
CTETRA      4840       1    4147    3128    4148    5621
CTETRA      4841       1    1809    5199    5205    5191
CTETRA      4842       1    4259    5385    5897    5896
CTETRA      4843       1    4252    5758    3539    3540
CTETRA      4844       1    4258    5896    5895    5385
CTETRA      4845       1    1547    3535    3534    3529
CTETRA      4846       1     746    1944    1968    1211
CTETRA      4847       1     137     463     138     142
CTETRA      4848       1    1944     142    1952    1951
CTETRA      4849       1    4258    5385    4259    5896
CTETRA      4850       1    1944    1943    1951    2629
CTETRA      4851       1    2264    2630    2616    2628
CTETRA      4852       1    2631    1944    1950    2629
CTETRA      4853       1    1170    1590    1029    1555
CTETRA      4854       1    2117    3428    3400    3399
CTETRA      4855       1    2592    3399    3400    3411
CTETRA      4856       1    1313    2632    3466    3465
CTETRA      4857       1     486     504    1664    2023
CTETRA      4858       1    2335    3400    3428    3427
CTETRA      4859       1    1016    1015    1034    1039
CTETRA      4860       1    1909    1171    1663    2023
CTETRA      4861       1    2235    3431    3426    3429
CTETRA      4862       1    2616    2628    4104    4102
CTETRA      4863       1    1734    4396    4360    1690
CTETRA      4864       1    1406    4716    4712    4715
CTETRA      4865       1     735     444      40     113
CTETRA      4866       1    1002    5300    5301    5302
CTETRA      4867       1    2633    2202    4472    2505
CTETRA      4868       1     558     125     735     113
CTETRA      4869       1    2068    1558     814    2634
CTETRA      4870       1    2635    4312    4308    4310
CTETRA      4871       1    2467    5074    5069    5064
CTETRA      4872       1     745     122     771     770
CTETRA      4873       1    2105    5680    3298    5681
CTETRA      4874       1    1207     787     734    1221
CTETRA      4875       1    3299    5680    2105    5679
CTETRA      4876       1     787    1113      39    1731
CTETRA      4877       1     558      39      37     734
CTETRA      4878       1    1559     907    1560    2447
CTETRA      4879       1     943    3458    3457    3456
CTETRA      4880       1    2636     839    2289    2292
CTETRA      4881       1     837     840    1989     839
CTETRA      4882       1    2075    3949    1764    3954
CTETRA      4883       1    1552    1170    1379     834
CTETRA      4884       1    2069    2070    3201    3188
CTETRA      4885       1     996    1230    1804    1803
CTETRA      4886       1    5380    5895    4258    4263
CTETRA      4887       1    2533    5381    5380    4263
CTETRA      4888       1     840     832     833     839
CTETRA      4889       1    1585    4260    4257    4259
CTETRA      4890       1    2075    1774    1764    3949
CTETRA      4891       1    1277    5197    5201    5179
CTETRA      4892       1    3121    5650    4051    4056
CTETRA      4893       1     836    1415     839    2163
CTETRA      4894       1    1584     496    1574    1343
CTETRA      4895       1    3123    3124    5623    4152
CTETRA      4896       1    4153    3124    4152    5624
CTETRA      4897       1    1780    4145    5202    5204
CTETRA      4898       1    3123    4147    5622    3128
CTETRA      4899       1    1033    1905     498    1903
CTETRA      4900       1    1818    4147    4152    3123
CTETRA      4901       1     863    4770    4777    4778
CTETRA      4902       1    1568    1569     479     488
CTETRA      4903       1    2637    4750    4749    4766
CTETRA      4904       1    1584     497     496    1343
CTETRA      4905       1    1373    5484    5485    5461
CTETRA      4906       1    1038    2070    1559    1557
CTETRA      4907       1    1557    1584    1563    1561
CTETRA      4908       1    2367    2366    3334    3337
CTETRA      4909       1    1557    1342    1560    1562
CTETRA      4910       1    2442    3640    3639    3647
CTETRA      4911       1    1227    2638    2064    2062
CTETRA      4912       1     649    2048    2336    1857
CTETRA      4913       1    2201    4471    4681    4682
CTETRA      4914       1     165     535     388     168
CTETRA      4915       1    1000    2213     402     400
CTETRA      4916       1    1026    3648    3645    3638
CTETRA      4917       1     475     900     477    2573
CTETRA      4918       1    2639    3544    3548    3557
CTETRA      4919       1     895    2191     892     166
CTETRA      4920       1     535    1626     909    1061
CTETRA      4921       1    2241    4745    4738     566
CTETRA      4922       1    2640    4753    4747    4746
CTETRA      4923       1    2241    4728    4738    4729
CTETRA      4924       1    1094     361    3803    3802
CTETRA      4925       1     891     892     896     902
CTETRA      4926       1    2346    3639    3645    3647
CTETRA      4927       1    2639    3543    3557    3552
CTETRA      4928       1    1059     199    1850     900
CTETRA      4929       1     895     899    1000     901
CTETRA      4930       1     167     164     173     984
CTETRA      4931       1     792     173     929    2641
CTETRA      4932       1     172     983     986     170
CTETRA      4933       1    1975    4800    5316    4822
CTETRA      4934       1     173     929    2641    1888
CTETRA      4935       1     985     173    2642     790
CTETRA      4936       1    2617    1125    4092    1123
CTETRA      4937       1     173    1888     661     929
CTETRA      4938       1    1360    1975    2021    1361
CTETRA      4939       1    1360    5324    5316    4800
CTETRA      4940       1    5875    4800    4822    5316
CTETRA      4941       1    3118    2369    4058    2350
CTETRA      4942       1    2252    2643    2644    2065
CTETRA      4943       1    2350    1514    4049    4056
CTETRA      4944       1    2350    1514    3117    2645
CTETRA      4945       1    2350    4049    2369    4058
CTETRA      4946       1    1031     672    1661    2646
CTETRA      4947       1    1031     226     672    2646
CTETRA      4948       1    1414    1431    1428    1430
CTETRA      4949       1     671    1031     572    1030
CTETRA      4950       1     671     672     573    1031
CTETRA      4951       1    1028    1029     675     670
CTETRA      4952       1    2617    1125    4103    4092
CTETRA      4953       1    1227     789     276    2059
CTETRA      4954       1     302     758     303     756
CTETRA      4955       1      98      89     276      94
CTETRA      4956       1    2059    1789    1227     789
CTETRA      4957       1    1673    1523    5247    4764
CTETRA      4958       1     305     300     301     302
CTETRA      4959       1     303     301    1227     277
CTETRA      4960       1    2647    2648    2649    4686
CTETRA      4961       1    2647    1074    4654    4686
CTETRA      4962       1    4654    4685    4467    2650
CTETRA      4963       1    1856    5305    5300    5297
CTETRA      4964       1    2647     120    2648    1974
CTETRA      4965       1    2647     120     121    2649
CTETRA      4966       1     658     440    2651    1278
CTETRA      4967       1     659     658    1278    1340
CTETRA      4968       1    1278     660    2651     658
CTETRA      4969       1    3446    5781    4309    4313
CTETRA      4970       1    2652     335    1278    2623
CTETRA      4971       1    1278    2623     335    2624
CTETRA      4972       1    2653    3353    3352    3445
CTETRA      4973       1     931    2654    1993    2004
CTETRA      4974       1    2655    3442    3443    3445
CTETRA      4975       1     205     552     616     203
CTETRA      4976       1    1278    1340    2624     335
CTETRA      4977       1    2053    1344    1342    2011
CTETRA      4978       1    1437    4316    4315    4317
CTETRA      4979       1     682     662     659    2010
CTETRA      4980       1    1374    5482    5483    5459
CTETRA      4981       1    2635    4312    4313    4309
CTETRA      4982       1     481    1568     272    1295
CTETRA      4983       1      56    2200    1756     881
CTETRA      4984       1      35    1532    2656    2548
CTETRA      4985       1      35      56    2079    2656
CTETRA      4986       1      33      63      55     878
CTETRA      4987       1      56      59    2186     879
CTETRA      4988       1    4309    5781    3452    5780
CTETRA      4989       1    1532    2656    1970    2657
CTETRA      4990       1    4305    5780    3452    5779
CTETRA      4991       1    2656    1758    2657    1532
CTETRA      4992       1    2495    2658    2659    2660
CTETRA      4993       1    2495    2661     744    2660
CTETRA      4994       1    2495    2661    2659    1817
CTETRA      4995       1    2539    3211    1657    3205
CTETRA      4996       1    2495    1536    2658     879
CTETRA      4997       1    2662    3442    3449    3450
CTETRA      4998       1    4334    3351    5776    3449
CTETRA      4999       1    2620    4076    2663    4093
CTETRA      5000       1    2495    2658     744     879
CTETRA      5001       1     129     267     268     867
CTETRA      5002       1    2655    3442    3445    3352
CTETRA      5003       1    1024    2128     380    2664
CTETRA      5004       1     569     570    1024     567
CTETRA      5005       1     259    5504    5902    5903
CTETRA      5006       1    1024    2665     569     567
CTETRA      5007       1    1173    1024     380    2225
CTETRA      5008       1    2662    2156    2164    3443
CTETRA      5009       1    2493    4352    4351    4354
CTETRA      5010       1     570     568     569    1018
CTETRA      5011       1    1021    1022    1588     381
CTETRA      5012       1    1023     381     380     371
CTETRA      5013       1    1553    1450    2666    2667
CTETRA      5014       1    2668    4304    4299    4307
CTETRA      5015       1    1329     841     838     833
CTETRA      5016       1    2385    2669    2670    3701
CTETRA      5017       1    4297    5778    4306    3454
CTETRA      5018       1     487     332     272     269
CTETRA      5019       1    2671    4656    2672    4636
CTETRA      5020       1    1872    1664     833    2290
CTETRA      5021       1    1366    2268    1376    1373
CTETRA      5022       1    4330    5772    5773    3379
CTETRA      5023       1    2671    4686    1074    2649
CTETRA      5024       1     839    2163    1416    2636
CTETRA      5025       1     841    1989    2216    1332
CTETRA      5026       1    1593    5757    4252    3540
CTETRA      5027       1    2673    3752    3753    3688
CTETRA      5028       1    1593    1495    1499    3532
CTETRA      5029       1     841    1330    2291    1329
CTETRA      5030       1     841    1329    2293     833
CTETRA      5031       1     575     577    2171    1732
CTETRA      5032       1     932    3957    3952    3953
CTETRA      5033       1     576     578    1143     577
CTETRA      5034       1     968     577     575    1732
CTETRA      5035       1    1609     577    1732     918
CTETRA      5036       1    2674    3477    3560    3562
CTETRA      5037       1    5432    5705    3317    5704
CTETRA      5038       1    2404    4799    4796    4798
CTETRA      5039       1    2675     737    2676     738
CTETRA      5040       1     214    4594    4593    4610
CTETRA      5041       1     351    5354    5355    5319
CTETRA      5042       1     737    2473     738    2675
CTETRA      5043       1     508     511     695     770
CTETRA      5044       1     737    1544    2676     738
CTETRA      5045       1    2420    4694    4785    1548
CTETRA      5046       1    2677    3550    3556    3549
CTETRA      5047       1    2678    3563    3476    3562
CTETRA      5048       1     737    1544    2679    2676
CTETRA      5049       1    2674    3562    3561    3564
CTETRA      5050       1    2015    3477    3476    3771
CTETRA      5051       1     737     456     455     739
CTETRA      5052       1     739     455     454     456
CTETRA      5053       1    2680    5350    5351    5338
CTETRA      5054       1    1201    1944     142     746
CTETRA      5055       1     746     745    1968     454
CTETRA      5056       1    5840    5898    5759    5365
CTETRA      5057       1     876     933     921    1450
CTETRA      5058       1     933    2681    1450    1833
CTETRA      5059       1     887      95     372      93
CTETRA      5060       1     979    1254    2424    2682
CTETRA      5061       1     887    1833    2083    2084
CTETRA      5062       1    2358    3525    3524    3534
CTETRA      5063       1     106     102     108     542
CTETRA      5064       1    2683    2359    1833    2681
CTETRA      5065       1     887    1554    2684    2083
CTETRA      5066       1    1833    2439    1553    1554
CTETRA      5067       1    1833    2084    2359    2083
CTETRA      5068       1    2180     736    2575    1326
CTETRA      5069       1    2125    1325     456    2180
CTETRA      5070       1    1585    4259    4258    5385
CTETRA      5071       1    2180     736    1326    1325
CTETRA      5072       1    2671    2685    4656    4687
CTETRA      5073       1    1577    5361    5368    5369
CTETRA      5074       1    1551    4247    4248    4238
CTETRA      5075       1    1868    4669    4700    4701
CTETRA      5076       1    2180    2686     369    2472
CTETRA      5077       1    2180    2472     369     501
CTETRA      5078       1    1550    4262    4247    4246
CTETRA      5079       1     723     730    1289     725
CTETRA      5080       1     724     729     723     732
CTETRA      5081       1    1628    5360    5369    5370
CTETRA      5082       1     728    2489    1330    1329
CTETRA      5083       1     332    1570     337    1329
CTETRA      5084       1     724     730     728     732
CTETRA      5085       1     730     269    2687     272
CTETRA      5086       1    2534    1628    1577    5369
CTETRA      5087       1     730     269    2399    2687
CTETRA      5088       1    1469    3416    3412    3413
CTETRA      5089       1     210    5304    5301    5300
CTETRA      5090       1    1593    4252    5757    4253
CTETRA      5091       1    3357    2416    2688    3358
CTETRA      5092       1     730     723    1289    2689
CTETRA      5093       1     730     732    2399     269
CTETRA      5094       1     144     392     391    1538
CTETRA      5095       1    1495    3539    3536    3540
CTETRA      5096       1     393    1135    2690    2691
CTETRA      5097       1     394     146     387     393
CTETRA      5098       1     393    1956    2691    2692
CTETRA      5099       1     393    1956    2692     394
CTETRA      5100       1     391     800    1984    1538
CTETRA      5101       1    1883    1082     350    2395
CTETRA      5102       1    1735    1743    1739    1763
CTETRA      5103       1    1699    1761     224    1762
CTETRA      5104       1    5387    4260    5897    5898
CTETRA      5105       1    2693    2694    3517    2695
CTETRA      5106       1    4256    3539    5758    5759
CTETRA      5107       1    1743    1837    1762    1761
CTETRA      5108       1     599     600     602     610
CTETRA      5109       1     610     602    1266     600
CTETRA      5110       1     607     872     871     528
CTETRA      5111       1    1595    5387    5366    5365
CTETRA      5112       1     601     603     865     600
CTETRA      5113       1     600     601    1266    1303
CTETRA      5114       1    2343    4606    4624    4607
CTETRA      5115       1     472    4626    4627    4609
CTETRA      5116       1     850    1199     339    1150
CTETRA      5117       1    1350    4609    4593    4592
CTETRA      5118       1    2333    3791    3780    3790
CTETRA      5119       1    2509    3311    5703    5704
CTETRA      5120       1     850    1198    1199    1150
CTETRA      5121       1    2391    3739    3742    3741
CTETRA      5122       1    1150     677     806     678
CTETRA      5123       1    2510    3241    2436    3252
CTETRA      5124       1    2696    2697     725    2698
CTETRA      5125       1    2699    2696    2700     811
CTETRA      5126       1     811     815     813     819
CTETRA      5127       1     811    2696    2700     820
CTETRA      5128       1     474    1134     753    1232
CTETRA      5129       1    2017     469     415    1378
CTETRA      5130       1     471     469     467    2017
CTETRA      5131       1    2701    3797    3791    3796
CTETRA      5132       1    1226    2702    2703    2281
CTETRA      5133       1     474     753      23     749
CTETRA      5134       1    1133    1235    1236    1217
CTETRA      5135       1    2570    3185    3171    3184
CTETRA      5136       1    1137     709    2704    2494
CTETRA      5137       1    2554    5023    5188    5024
CTETRA      5138       1    2666    4157    4159    4156
CTETRA      5139       1    1814    1809    5205    5191
CTETRA      5140       1    5106    2540    3194    2524
CTETRA      5141       1     449    2705    1249     245
CTETRA      5142       1    1513    1486    1510    1492
CTETRA      5143       1    2373    5201    5189    5180
CTETRA      5144       1     449    2706     446    1597
CTETRA      5145       1     449     446    2706     245
CTETRA      5146       1     449    1249    2705    2707
CTETRA      5147       1     449    1598    1597     451
CTETRA      5148       1    2510    2524    5105    2512
CTETRA      5149       1    2707     449    1598    1597
CTETRA      5150       1    1454    4047    4055    4048
CTETRA      5151       1    2666    4157    4156    4174
CTETRA      5152       1    2626    5189    5200    5190
CTETRA      5153       1     451     446     449     448
CTETRA      5154       1    2373    5180    5189    5181
CTETRA      5155       1     451     446    2374    1597
CTETRA      5156       1    2708    2669    3704    2709
CTETRA      5157       1     448     446    1601     451
CTETRA      5158       1     445     447     246     241
CTETRA      5159       1     424     652     423    2132
CTETRA      5160       1    2710    4138    4139    4125
CTETRA      5161       1     274     421     428     425
CTETRA      5162       1    2711    5735    4162    4158
CTETRA      5163       1    2712    5179    5201    5180
CTETRA      5164       1    2510    3252    5661    3242
CTETRA      5165       1    2713    2552    2714    5183
CTETRA      5166       1    2510    5115    2512    5105
CTETRA      5167       1    2292    5032    5128    5116
CTETRA      5168       1     421     263     265    2132
CTETRA      5169       1    2132     265     421     424
CTETRA      5170       1    1472    3727    2492    3726
CTETRA      5171       1     424     683     423    1934
CTETRA      5172       1    2715    3843    3842    3844
CTETRA      5173       1     421    2132     424     423
CTETRA      5174       1     424     632     274     683
CTETRA      5175       1    2616    4103    2617    1125
CTETRA      5176       1     771    2150    1964     115
CTETRA      5177       1    2704    3843    3844    3845
CTETRA      5178       1    2510    3242    5661    5106
CTETRA      5179       1    2494    3671    3670    3842
CTETRA      5180       1     510     771     588    1965
CTETRA      5181       1    2287     771     115    2150
CTETRA      5182       1    2287     590    1211     588
CTETRA      5183       1     590     589     588    2287
CTETRA      5184       1    2351    4065    4066    4107
CTETRA      5185       1     588    1965     769     510
CTETRA      5186       1    1821    1204    1586    1584
CTETRA      5187       1    4878    1596    1251    2716
CTETRA      5188       1    1584    1204    1574    1821
CTETRA      5189       1    2430    5139    5149    5151
CTETRA      5190       1    1573    1574    2455    2717
CTETRA      5191       1    1573    2455    1574    2718
CTETRA      5192       1    1575    1573    2052    1579
CTETRA      5193       1    1573    2719    1204    2052
CTETRA      5194       1    1573    2719    2718    1204
CTETRA      5195       1    1877    3211    3206    3196
CTETRA      5196       1    1573    1204    2718    1574
CTETRA      5197       1    1175    1173    2225    1174
CTETRA      5198       1      90     378     371     381
CTETRA      5199       1     776    2646    3103    3102
CTETRA      5200       1    2566    3144    3133    3138
CTETRA      5201       1    1017    1067    1066    2720
CTETRA      5202       1    3194    5662    5151    5663
CTETRA      5203       1    1402    1403    2281    1225
CTETRA      5204       1    1185    1402    2280     247
CTETRA      5205       1    1435     376    1403    1588
CTETRA      5206       1    1402     376     239    1173
CTETRA      5207       1    2459    3193    3196    3197
CTETRA      5208       1    2279    1402    1459    1588
CTETRA      5209       1     235     247    1402    1185
CTETRA      5210       1    2473     738     456     737
CTETRA      5211       1     459     136     462     457
CTETRA      5212       1     745    1211     746    1968
CTETRA      5213       1    2721    4022    4015    4014
CTETRA      5214       1    2669    3705    2722    3701
CTETRA      5215       1     370    2180    2686     369
CTETRA      5216       1     736    1918    2575    2188
CTETRA      5217       1     457    1978     462     459
CTETRA      5218       1    1659    3213    3203    3204
CTETRA      5219       1     149    1194     460     386
CTETRA      5220       1    2430    5150    5151    5149
CTETRA      5221       1      94    1449     545    1076
CTETRA      5222       1     713     721     718     720
CTETRA      5223       1     715     713      98     277
CTETRA      5224       1      97     276      89      96
CTETRA      5225       1      98    2061     715     277
CTETRA      5226       1      89      98      97      93
CTETRA      5227       1    1547    3535    3529    3516
CTETRA      5228       1    5384    1577    5368    5369
CTETRA      5229       1      92      94     545      91
CTETRA      5230       1      98    1452    2438    2723
CTETRA      5231       1     145    1972    2724    2725
CTETRA      5232       1    2333    3771    3780    3781
CTETRA      5233       1    1755    2404    1548    2381
CTETRA      5234       1    2420    4693    4779    4785
CTETRA      5235       1     471    4611    4610    4628
CTETRA      5236       1     145    1541    2726     139
CTETRA      5237       1    2403    4663    4694    4695
CTETRA      5238       1    2677    3549    3564    3561
CTETRA      5239       1    1693    5328    5329    5322
CTETRA      5240       1    1201     143    1943    2355
CTETRA      5241       1    1349    1347     349    1346
CTETRA      5242       1     145    1972    2725    1200
CTETRA      5243       1    1201     143    2355     727
CTETRA      5244       1    2275    3595    3592    3596
CTETRA      5245       1    1220    1217    1216     215
CTETRA      5246       1    2727    2376    1136    1218
CTETRA      5247       1    2376    1136    1218    1216
CTETRA      5248       1    4611     214     216    1378
CTETRA      5249       1    1635    2169    1136    1216
CTETRA      5250       1    1216    2169    1136    2728
CTETRA      5251       1    1537    2728    1216    2729
CTETRA      5252       1    2674    3561    3560    3550
CTETRA      5253       1    2674    3550    2677    3561
CTETRA      5254       1    1216    1217    1218     215
CTETRA      5255       1    1215    1218    1217    1312
CTETRA      5256       1     770     771     510     117
CTETRA      5257       1    4785    1501    2381    4784
CTETRA      5258       1    2701    3796    3749    3797
CTETRA      5259       1    1212     695    1544    2730
CTETRA      5260       1    1213     512     770     511
CTETRA      5261       1     770     695    1544    1212
CTETRA      5262       1    2731    4096    4097    5794
CTETRA      5263       1    2494    3726    3670    3671
CTETRA      5264       1    2732    4113    4112    4121
CTETRA      5265       1    2733    1632    1470    3738
CTETRA      5266       1    1922    2197    2232    1621
CTETRA      5267       1     287    1362    5604    5716
CTETRA      5268       1     287     296    5716    1811
CTETRA      5269       1     294    1622    1621     285
CTETRA      5270       1    1622    1920    2141    1621
CTETRA      5271       1    2386    4078    4104    4079
CTETRA      5272       1    2368    3709    3710    3708
CTETRA      5273       1    2186    2495     744     879
CTETRA      5274       1    1107    3683    3682    3747
CTETRA      5275       1    2391    3732    3739    3741
CTETRA      5276       1    1922    2197    2098     499
CTETRA      5277       1    1621    5555    2196    2197
CTETRA      5278       1    2588    1922    2232    1620
CTETRA      5279       1    1794    2588    5576    2232
CTETRA      5280       1    3340    1491     204    3333
CTETRA      5281       1    2141    1622    1621     294
CTETRA      5282       1    1922    2588    2140     294
CTETRA      5283       1    2445    2342    5433    3316
CTETRA      5284       1     294    2588    1620    1922
CTETRA      5285       1    2431    2140    5597    2588
CTETRA      5286       1    5907    2140    1940    1847
CTETRA      5287       1    2431    5597    2140    5596
CTETRA      5288       1    3311    5704    2509    3317
CTETRA      5289       1    1940    2431    5913    1147
CTETRA      5290       1    2734    2735    5178    5177
CTETRA      5291       1    2431     290    2140    2588
CTETRA      5292       1    2018    1799     290    1795
CTETRA      5293       1    1147    5708    5913    1146
CTETRA      5294       1    2018    1795    5709    1320
CTETRA      5295       1    2498    3347    3350    5427
CTETRA      5296       1    2643     715    2061    2252
CTETRA      5297       1    2689    3863    3882    3883
CTETRA      5298       1    2736    4079    2630    4105
CTETRA      5299       1     163    2498    1364    5427
CTETRA      5300       1    2737    2498     163    3349
CTETRA      5301       1    3343    2498    5425    2737
CTETRA      5302       1     163    1364     203    1363
CTETRA      5303       1    2298    3581    3583    3576
CTETRA      5304       1    2738    3502    3506    3503
CTETRA      5305       1    1254    3515    2682    3514
CTETRA      5306       1     203    5472    5473    5449
CTETRA      5307       1    5449     203    5425    2498
CTETRA      5308       1    2251    2644    2722    2739
CTETRA      5309       1    2498     203    5425    2737
CTETRA      5310       1    5316    1967    4822    5874
CTETRA      5311       1    1068    1669    2740    2432
CTETRA      5312       1    1628    1627    5373    5376
CTETRA      5313       1     714     716    2252     715
CTETRA      5314       1     714    1069     716     720
CTETRA      5315       1    1068    1669    1076    2740
CTETRA      5316       1    5372    5869    4832    5870
CTETRA      5317       1    5378    4834    5867    5866
CTETRA      5318       1    1071    1894    1068     766
CTETRA      5319       1     306     310     714    1073
CTETRA      5320       1    2058     609     600    1303
CTETRA      5321       1    2424    3535    3516    3515
CTETRA      5322       1    5357    5871    5870    4830
CTETRA      5323       1     130     656    1711     134
CTETRA      5324       1     531    1712     609    2030
CTETRA      5325       1     531     609    1712    1303
CTETRA      5326       1     607    2031     608     600
CTETRA      5327       1    1303    2058    2741     600
CTETRA      5328       1    1624    5382    5379    5381
CTETRA      5329       1     608    2451    2208    2031
CTETRA      5330       1     529     603    1297    1302
CTETRA      5331       1     530     531    1302     609
CTETRA      5332       1     136     457     461     462
CTETRA      5333       1     370    2180    2575    2686
CTETRA      5334       1    2129    3985    3919    3984
CTETRA      5335       1    1582    4045    4042    4044
CTETRA      5336       1     370     369    2686    2574
CTETRA      5337       1    2181    2446    2742    2323
CTETRA      5338       1    2181     175    2323    1918
CTETRA      5339       1    2178     859     458    1919
CTETRA      5340       1      52    2181     175      51
CTETRA      5341       1     777     175    1918     691
CTETRA      5342       1    1514    4050    4049    4056
CTETRA      5343       1     454     457    1917     463
CTETRA      5344       1    3127    3126     645    3122
CTETRA      5345       1    1806    3158    3153    3152
CTETRA      5346       1    1510    4056    3121    4051
CTETRA      5347       1     748     749    1420     750
CTETRA      5348       1    1484    4150    4151    4135
CTETRA      5349       1     346     343    1840    1839
CTETRA      5350       1    2743      29      30     557
CTETRA      5351       1    1006    1025    2744    1395
CTETRA      5352       1    4052    3139    5646    3141
CTETRA      5353       1    1006    1395    2744    1393
CTETRA      5354       1      29    1394    1392    1393
CTETRA      5355       1    1186     579     571     569
CTETRA      5356       1    5690    5417    2745    3325
CTETRA      5357       1    5412    5685    3312    3313
CTETRA      5358       1    5413    1375    5437    2393
CTETRA      5359       1      38    1113    1119    1730
CTETRA      5360       1      37    1025    1006    1395
CTETRA      5361       1    5417    5418    3325    5690
CTETRA      5362       1      32    1113    1731      39
CTETRA      5363       1     968    1732     575    1666
CTETRA      5364       1    1635    1608     342    1351
CTETRA      5365       1    1983    1732    1635    2170
CTETRA      5366       1     186    2746    5165    2747
CTETRA      5367       1    1353    1635    1355    1351
CTETRA      5368       1    2627    3762    3763    3764
CTETRA      5369       1    1635    1353    1732    1351
CTETRA      5370       1     827    1446     825     860
CTETRA      5371       1    1535    1635    1614    1634
CTETRA      5372       1    2748    3727    3728    3669
CTETRA      5373       1    1635    1355    1351    1352
CTETRA      5374       1    1470    3735    3736    3738
CTETRA      5375       1    2749    5154    1419    1430
CTETRA      5376       1    1361    1448     351     350
CTETRA      5377       1    1448     350    2396    2397
CTETRA      5378       1    2737    3343    3349    3344
CTETRA      5379       1    1448    5347    1444    5346
CTETRA      5380       1    1448    2750    1361    5355
CTETRA      5381       1    1448    5353    2396    5355
CTETRA      5382       1    5422    5695    1787    3330
CTETRA      5383       1    1788    5420    5421    3328
CTETRA      5384       1    1448     353    1444    5347
CTETRA      5385       1    1011    1878    2751    2256
CTETRA      5386       1     550    1493     551    1487
CTETRA      5387       1    1012    1751     594     559
CTETRA      5388       1    2752    2257    2753     992
CTETRA      5389       1    1011     991    1878    2256
CTETRA      5390       1       5     990    2008     868
CTETRA      5391       1    1494    5470    5446    5469
CTETRA      5392       1    2754    2755    5127    2756
CTETRA      5393       1    2008     441    2463    2460
CTETRA      5394       1    2303    1518    2182    2319
CTETRA      5395       1    1518    2653    2231    1907
CTETRA      5396       1    1518    2231    2318    2320
CTETRA      5397       1    1518    1521    1907    2231
CTETRA      5398       1    1518    2319    2318    2577
CTETRA      5399       1    2653    1811    1907    1518
CTETRA      5400       1    1519    2154    4336    4293
CTETRA      5401       1    1787    5696    3345    3320
CTETRA      5402       1    1519    1521    2320    4337
CTETRA      5403       1    1518    1521    2231    2320
CTETRA      5404       1    1521    2230    2231    2320
CTETRA      5405       1    1611    1613    1625     256
CTETRA      5406       1    5424    5697    3345    5696
CTETRA      5407       1    1625    1613    1628     256
CTETRA      5408       1    1576    1613    1610    1801
CTETRA      5409       1    5425    5697    5698    3345
CTETRA      5410       1    1613    1577    1801    1576
CTETRA      5411       1    1425    1801    1577    1889
CTETRA      5412       1    1498     231     232    2757
CTETRA      5413       1     229    1990    1425    2215
CTETRA      5414       1    5422    5421    5694    3330
CTETRA      5415       1    1425    1613    1628    1577
CTETRA      5416       1    1425     254    2215    1628
CTETRA      5417       1    2276    3824    3841    3843
CTETRA      5418       1    2758    2759    3749    2701
CTETRA      5419       1     656    1261     406    1262
CTETRA      5420       1    2024     866     295     657
CTETRA      5421       1    4486    4568    1353    1348
CTETRA      5422       1    2390    3734    3733    3740
CTETRA      5423       1     292    1773    2018    1147
CTETRA      5424       1     870    2237    1526    2238
CTETRA      5425       1     491    3588    3577    3587
CTETRA      5426       1     869     870    2113    1526
CTETRA      5427       1    4738    2242    2241     566
CTETRA      5428       1    1303     656     130     531
CTETRA      5429       1    2246    5259    5252    5251
CTETRA      5430       1    2008       5     408     869
CTETRA      5431       1    2024     941     870    1358
CTETRA      5432       1     408    2760    2237     941
CTETRA      5433       1    2275    3592    3588    3596
CTETRA      5434       1    1192     864    1189    4772
CTETRA      5435       1    2411    3583    3581    3579
CTETRA      5436       1     132    1712     318     131
CTETRA      5437       1     537     374     168     665
CTETRA      5438       1    2761    2590    1755     830
CTETRA      5439       1    2730    4689    4755    4690
CTETRA      5440       1    1887     171    1566    1508
CTETRA      5441       1    1540    4744     566    2242
CTETRA      5442       1    3590    5232    2275    2762
CTETRA      5443       1     665    2651     658     533
CTETRA      5444       1     491    3596    3588    3587
CTETRA      5445       1    2749    5163    1653    5164
CTETRA      5446       1     533    2521     658     665
CTETRA      5447       1     373     537     374     168
CTETRA      5448       1    2747    1419    5155    5142
CTETRA      5449       1     293     529    2193     528
CTETRA      5450       1     273    1855     584     586
CTETRA      5451       1       4     133     135     868
CTETRA      5452       1    1855     279    1320     273
CTETRA      5453       1    5429    5701    5702    3348
CTETRA      5454       1    2746    5164    1653    5169
CTETRA      5455       1    2508    3346    3348    3342
CTETRA      5456       1     279    1320     273    1773
CTETRA      5457       1    1763    1735     225    1736
CTETRA      5458       1    1900    1898     220    1736
CTETRA      5459       1    5430    5702    5703    3348
CTETRA      5460       1     225    1763     220     224
CTETRA      5461       1    1838    1697     360    1079
CTETRA      5462       1    1697    1762    1078    1838
CTETRA      5463       1    1078    2763    1183    1085
CTETRA      5464       1    1743    2764    1742    2765
CTETRA      5465       1    1460     218    1867    1864
CTETRA      5466       1    1763    1743    1739    1086
CTETRA      5467       1     553    2766     547     546
CTETRA      5468       1     553     547    2766    2767
CTETRA      5469       1     553    2768    2262    2769
CTETRA      5470       1     553    2768     549    2262
CTETRA      5471       1     553    2265    2529    2262
CTETRA      5472       1    1369    1504    1503    1371
CTETRA      5473       1    1370    1371    1967    2770
CTETRA      5474       1    1834    1963    2021    2771
CTETRA      5475       1    1370    1975    1967    1386
CTETRA      5476       1    1370    1962    1386    1372
CTETRA      5477       1    1370    2417    1504    2770
CTETRA      5478       1    2622    3309    2367    3335
CTETRA      5479       1    1370    1975    1963    2771
CTETRA      5480       1    2423    2517    1843    4672
CTETRA      5481       1    5413    3314    5685    5686
CTETRA      5482       1    1383    3318    3308    3309
CTETRA      5483       1     155     161    1508    1507
CTETRA      5484       1     150     153     156     160
CTETRA      5485       1     902     895     535     891
CTETRA      5486       1    1872     839    1415    1873
CTETRA      5487       1     838    1768    1331     269
CTETRA      5488       1    2399    1331    2772     269
CTETRA      5489       1    2604    2773    2609    2606
CTETRA      5490       1    1331    1381    2772    1768
CTETRA      5491       1    2774    1331    1381    2772
CTETRA      5492       1    5414    5687    3314    5686
CTETRA      5493       1    2622    2342    2509    2508
CTETRA      5494       1    1752    3324    3338    3307
CTETRA      5495       1    1768    1331    1381    1988
CTETRA      5496       1     269    2772     271    1694
CTETRA      5497       1    1694    2772     271    1382
CTETRA      5498       1    1768    1382    1379    1381
CTETRA      5499       1     629    1258    1958    1677
CTETRA      5500       1     629    1826    1959    1960
CTETRA      5501       1     629    1677    1958    1959
CTETRA      5502       1     630    1678    1677    1959
CTETRA      5503       1    1306    4718    5887    4706
CTETRA      5504       1    2775    5290     617     260
CTETRA      5505       1    1293    2090    1294    1671
CTETRA      5506       1    1859     507     631     630
CTETRA      5507       1     694     864     630     631
CTETRA      5508       1    2776    5249    5248    5242
CTETRA      5509       1     640     864     631     628
CTETRA      5510       1     628     630     629     639
CTETRA      5511       1     629    1257     630    1959
CTETRA      5512       1    2777    2434    2778    2380
CTETRA      5513       1     822     785    1953     566
CTETRA      5514       1    1293     822    1047    2779
CTETRA      5515       1    2090    1293     823     822
CTETRA      5516       1    1306    4718    1882    5272
CTETRA      5517       1     653    4446    5837    4445
CTETRA      5518       1     571    1184    1552     670
CTETRA      5519       1    2603    4425    2479    4446
CTETRA      5520       1     836    1989    2163     839
CTETRA      5521       1     671     675     670    1028
CTETRA      5522       1    1319    3363    3362    3430
CTETRA      5523       1    1555    2721    1223     675
CTETRA      5524       1     523    3435    3436    3458
CTETRA      5525       1    1555    1223    2780    1590
CTETRA      5526       1    1017    1015    1028    1029
CTETRA      5527       1     673    1017    1222     674
CTETRA      5528       1    2103    3291    2781    3294
CTETRA      5529       1    2782    4976    4998    4977
CTETRA      5530       1    2783    4633    2778    4634
CTETRA      5531       1     876    2084     889     933
CTETRA      5532       1    1554    1833    2083     887
CTETRA      5533       1    2701    3792    3791    3797
CTETRA      5534       1    1453    1434     886     890
CTETRA      5535       1     875    1458     888     890
CTETRA      5536       1     875     541     888    1458
CTETRA      5537       1    2784    2190    4799    4696
CTETRA      5538       1     875    2084     886     890
CTETRA      5539       1    2536    2734    2735    2313
CTETRA      5540       1    2084     933    2359    1454
CTETRA      5541       1    1802    4289    1804    4267
CTETRA      5542       1    2344    4625    4608    4607
CTETRA      5543       1    2016    3781    3772    3771
CTETRA      5544       1    1635    1634    2169    1614
CTETRA      5545       1    2674    3562    3560    3561
CTETRA      5546       1    2420    4661    4693    4662
CTETRA      5547       1      57    1100    1607     881
CTETRA      5548       1      57    1609      63     880
CTETRA      5549       1    2429    2785    1230    2600
CTETRA      5550       1    1983    1636     877    2302
CTETRA      5551       1    2786    3781    3791    3792
CTETRA      5552       1    2734    5178    5671    5168
CTETRA      5553       1    1983    1636    2169    1634
CTETRA      5554       1    2344    4607    4608    4592
CTETRA      5555       1    1983     877    2173    2302
CTETRA      5556       1     554    4625    4607    4624
CTETRA      5557       1    2315    3475    3476    3563
CTETRA      5558       1    1732     918    1983    1609
CTETRA      5559       1      65      70    1616     878
CTETRA      5560       1    1616    2787     910     916
CTETRA      5561       1    2604    2564    2563    2788
CTETRA      5562       1    1616     298     384    2789
CTETRA      5563       1    1616    2556     298    2789
CTETRA      5564       1    2790    1616    2556      70
CTETRA      5565       1     713     321     721    1554
CTETRA      5566       1    1451     372      93     887
CTETRA      5567       1      99     888    2309    1384
CTETRA      5568       1    2712    5179    5180    5188
CTETRA      5569       1     887    1451    2684      93
CTETRA      5570       1    1393    3655    3642    3641
CTETRA      5571       1      89     372      93      97
CTETRA      5572       1    2210    4468    4684    4685
CTETRA      5573       1     105    3634    3639    3635
CTETRA      5574       1    1835    4766    4749    4765
CTETRA      5575       1     713    1554     721    2791
CTETRA      5576       1     714      94     303    1076
CTETRA      5577       1    1026    2346    3638    3645
CTETRA      5578       1    2346    3646    3647    3645
CTETRA      5579       1    1733    2434    2224    1842
CTETRA      5580       1    1026    3646    3645    3648
CTETRA      5581       1    2241    4738    4739    4729
CTETRA      5582       1    4730    2792    4740    4739
CTETRA      5583       1    2775     260    5265    5290
CTETRA      5584       1    1130    4241    4274    4242
CTETRA      5585       1    4746    1004     619    4741
CTETRA      5586       1     297      70    2263    2793
CTETRA      5587       1     308     298     385     304
CTETRA      5588       1    2794    3592    3568    3588
CTETRA      5589       1    2795    3619    3567    3566
CTETRA      5590       1    1072    2556     297    2557
CTETRA      5591       1     251     786     951     788
CTETRA      5592       1    4734    2796    4733    4731
CTETRA      5593       1      65    2556      70     297
CTETRA      5594       1    1948    3647    2346    3646
CTETRA      5595       1    2241    4739    4730    4729
CTETRA      5596       1    2131    5279    5281    5217
CTETRA      5597       1     297    2797    2263    2798
CTETRA      5598       1    1868    4812    4700    4811
CTETRA      5599       1    2734    2735    5177    2081
CTETRA      5600       1    2081    2537    2734    2536
CTETRA      5601       1    1461    4831    4828    4830
CTETRA      5602       1    2798    2265     297    2264
CTETRA      5603       1    1761    3508    3509    3498
CTETRA      5604       1     210     201    1715     623
CTETRA      5605       1     210     201     623    1856
CTETRA      5606       1    1506    4811    4829    4812
CTETRA      5607       1    1002    1945     209      14
CTETRA      5608       1     210     209    1002     653
CTETRA      5609       1     210    1856    5300    1002
CTETRA      5610       1    5365    5759    3537    1595
CTETRA      5611       1     210    5300    1856    5304
CTETRA      5612       1    4821    2799    4825    5397
CTETRA      5613       1     417     469    1315     994
CTETRA      5614       1    1463    4812    4813    4701
CTETRA      5615       1    1315     994    2219    1316
CTETRA      5616       1    2799    4825    4823    4821
CTETRA      5617       1    2219    1315    2221     994
CTETRA      5618       1    1502    1871    1369    1503
CTETRA      5619       1    1369    1700    1962    2522
CTETRA      5620       1    5833    4726    5811    5917
CTETRA      5621       1    2183    1315    2219    1316
CTETRA      5622       1    2336    5834    4440    4439
CTETRA      5623       1    1973    4725    5891    5286
CTETRA      5624       1    1502    1870    1871    1316
CTETRA      5625       1    2610    4435    4438    4436
CTETRA      5626       1    1973    5286    5891    5833
CTETRA      5627       1    2336    5833    4441    5834
CTETRA      5628       1    2409    1802    4267    4270
CTETRA      5629       1    1321    1316    1314    1315
CTETRA      5630       1    1315    2118    2221     469
CTETRA      5631       1    2316    4858    4864    4860
CTETRA      5632       1     470    2066    1315    2118
CTETRA      5633       1    1802    1804    4289    1800
CTETRA      5634       1    1870    1700    2067     470
CTETRA      5635       1    2800    5684    4313    5683
CTETRA      5636       1     909    5046    5078    5079
CTETRA      5637       1    1321    1322    1699      20
CTETRA      5638       1     219    1867    1504    1885
CTETRA      5639       1     563    2032    1505    1504
CTETRA      5640       1    3446    5684    5781    4313
CTETRA      5641       1    1504    2799    2770     563
CTETRA      5642       1    1834    2771    1370    1963
CTETRA      5643       1    1504    1505    1503    2032
CTETRA      5644       1    2451    4911    4917    4912
CTETRA      5645       1     563    1505    1867    1504
CTETRA      5646       1    2801    4418    4425    4426
CTETRA      5647       1    1504    2417    1885    2560
CTETRA      5648       1     311    1482    5522    5523
CTETRA      5649       1     221     995    2219    2224
CTETRA      5650       1    1911    2050    2427    1875
CTETRA      5651       1    1911    1912    1913     328
CTETRA      5652       1    5724    1525    1281    1526
CTETRA      5653       1    1911    4414     141    1604
CTETRA      5654       1    1911    1602    1912      67
CTETRA      5655       1     515    2598    3386    2133
CTETRA      5656       1    1688    4855    4862    4856
CTETRA      5657       1    1911    1602      67    1604
CTETRA      5658       1    2802    3396    3395    3393
CTETRA      5659       1    2597    3366    3375    3373
CTETRA      5660       1     517    4393    4400    4401
CTETRA      5661       1    2408    4272    2783    4634
CTETRA      5662       1    2234    4845    4851    4852
CTETRA      5663       1    1911     141    2050     140
CTETRA      5664       1    5553    5554    2232    2243
CTETRA      5665       1     508     509     510    1543
CTETRA      5666       1    2713    5183    2714    5184
CTETRA      5667       1    1277    5197    5179    5022
CTETRA      5668       1     509    2803    1543    1310
CTETRA      5669       1     509    1328    1725    1723
CTETRA      5670       1    1766    3129    4148    3128
CTETRA      5671       1    1723     634     635     507
CTETRA      5672       1    2804    4168    4124    4167
CTETRA      5673       1    1543    1310     508     509
CTETRA      5674       1     343    2759    1839    1129
CTETRA      5675       1    1839    2314    1127    2759
CTETRA      5676       1    1967    2771    5316    1975
CTETRA      5677       1    2761    4798    1966    4799
CTETRA      5678       1     855    3769    2314    2315
CTETRA      5679       1      49      50     466     465
CTETRA      5680       1    1967    5397    5874    5316
CTETRA      5681       1    2764    3509    3493    3494
CTETRA      5682       1    2805    4689    2806    4657
CTETRA      5683       1    1839     858    1127    2337
CTETRA      5684       1    2807    5226    5225    5253
CTETRA      5685       1     105    3640    3635    3639
CTETRA      5686       1    2012    1839    2333    2314
CTETRA      5687       1    1840    2786    1839     343
CTETRA      5688       1    1839     858    1129    1127
CTETRA      5689       1    1292    4759    4758    4768
CTETRA      5690       1     619    4745    4740    4739
CTETRA      5691       1    3414    2808    1592    1469
CTETRA      5692       1     458     858    2179     459
CTETRA      5693       1     203    2737     163    1491
CTETRA      5694       1     359    1241     851    1420
CTETRA      5695       1    1660    1802    4266    1800
CTETRA      5696       1    2335    3400    3427    3401
CTETRA      5697       1     855    1840     856    2012
CTETRA      5698       1     275    3638    3634    3633
CTETRA      5699       1    1026    3637    3650    3648
CTETRA      5700       1     716    1123    2617    2663
CTETRA      5701       1    2044    5589    5565    5588
CTETRA      5702       1    1912     140    1188    2809
CTETRA      5703       1    1388    5303    5838    5839
CTETRA      5704       1    1760    1148    1942     281
CTETRA      5705       1    2485    5837    4446    5838
CTETRA      5706       1     654    4443    4446    4445
CTETRA      5707       1    2485    5837    5838    5302
CTETRA      5708       1    3420    1946    3421    2810
CTETRA      5709       1     646    2811    2603     647
CTETRA      5710       1    1912    1188    2316    2578
CTETRA      5711       1     721    2663    2812     719
CTETRA      5712       1    1912    2155    2813    2578
CTETRA      5713       1    1145    5730    3432    5913
CTETRA      5714       1    1473    5730    3401    3432
CTETRA      5715       1     946     944     938     935
CTETRA      5716       1    2109    3423    3425    3365
CTETRA      5717       1     319    1606     329     317
CTETRA      5718       1    2593    3418    3417    3401
CTETRA      5719       1    1841    1423     223    1842
CTETRA      5720       1     254     253    1460    1638
CTETRA      5721       1    2334    3428    3424    3426
CTETRA      5722       1    3413    1469    2593    3412
CTETRA      5723       1    1359    5717    1362     296
CTETRA      5724       1       8     273     278     284
CTETRA      5725       1    2044    1931    5611    5588
CTETRA      5726       1    2490    4937    2611    4945
CTETRA      5727       1     648    4442    4443    4444
CTETRA      5728       1    1145    3432    3431    5913
CTETRA      5729       1    2318    2577    3370    3368
CTETRA      5730       1    1423    2434    1733    1842
CTETRA      5731       1    2304    3382    3380    3383
CTETRA      5732       1    4400    1604    4407    4399
CTETRA      5733       1    1423     255    2236    1843
CTETRA      5734       1     972    1423    1426     973
CTETRA      5735       1     253     255    1843    1462
CTETRA      5736       1    4383    5767    5768    3367
CTETRA      5737       1    4360    1709    4367    1734
CTETRA      5738       1    1191    1611    2387    2423
CTETRA      5739       1    1423    1426    2236     255
CTETRA      5740       1    2311    2312    4290    4384
CTETRA      5741       1    1923    5603    5580    5579
CTETRA      5742       1    4290    5771    5772    3381
CTETRA      5743       1    2236    1426    1802    1660
CTETRA      5744       1    2236    1062    2423    1131
CTETRA      5745       1    2236    2517    2777    1843
CTETRA      5746       1    2236    1062    2517    2423
CTETRA      5747       1    2236    1426    2777    1802
CTETRA      5748       1    2311    3371    3381    3380
CTETRA      5749       1      26    1202      18    2593
CTETRA      5750       1    2312    4385    4384    4386
CTETRA      5751       1    5771    4384    3371    3381
CTETRA      5752       1     642    2610    2482    4429
CTETRA      5753       1    1202      18    2593    2592
CTETRA      5754       1      16    1845    1202      19
CTETRA      5755       1    2597    3374    3375    3376
CTETRA      5756       1    4384    3371    5770    5771
CTETRA      5757       1    2597    3367    3375    3366
CTETRA      5758       1    1202    1592    2602    2808
CTETRA      5759       1    1375    5438    5439    5415
CTETRA      5760       1    1203    2602    1202    1845
CTETRA      5761       1    2592    2117    2808    1202
CTETRA      5762       1    2001    2002    1731      32
CTETRA      5763       1    5554    2197    2243    5531
CTETRA      5764       1     615    1467    1466    2142
CTETRA      5765       1    1687    4856    4843    4855
CTETRA      5766       1     934    1855     935     584
CTETRA      5767       1    2814    2003    2202    1996
CTETRA      5768       1     593    2001    2815    1878
CTETRA      5769       1    2002    1997    2202    1996
CTETRA      5770       1     259    5904    5527    5903
CTETRA      5771       1    1766    4148    4146    4147
CTETRA      5772       1    4790    1826    1960    1257
CTETRA      5773       1    2408    5806    4634    4653
CTETRA      5774       1     629    1826    2816    1258
CTETRA      5775       1    2663    1123    4071     719
CTETRA      5776       1    1375    3327    2745    3324
CTETRA      5777       1    5534    5511    5535    2199
CTETRA      5778       1     637    1824     829     638
CTETRA      5779       1    1692    1693    1826    2543
CTETRA      5780       1    2817    2818    2819    2738
CTETRA      5781       1    2663    1123    4093    4071
CTETRA      5782       1    1258    2816    2543    1826
CTETRA      5783       1    2674    3564    2677    2405
CTETRA      5784       1    1871    4699    4698    4810
CTETRA      5785       1    1826    1693    1924    2820
CTETRA      5786       1    1826    2347     639    1257
CTETRA      5787       1      22    2285    1880     749
CTETRA      5788       1    2721    4015    4022    4016
CTETRA      5789       1    1222    3229    3230    1904
CTETRA      5790       1    2821    3180    3179    3184
CTETRA      5791       1     188    3207    3105    3203
CTETRA      5792       1    2780    4011    4015    4012
CTETRA      5793       1    2780    4016    4012    4015
CTETRA      5794       1    1876    5131    5137    5132
CTETRA      5795       1    2535    5174    5169    5172
CTETRA      5796       1    1698    2822    2674    1880
CTETRA      5797       1     468    1699    1880      20
CTETRA      5798       1    3978    1380    2780    3977
CTETRA      5799       1    2674    1880     749    1698
CTETRA      5800       1    2621    2812    4070    4069
CTETRA      5801       1    1697    1880    1699    1762
CTETRA      5802       1    2823    3215    3216    3226
CTETRA      5803       1    1698    1697    1880     749
CTETRA      5804       1    1582    4041    4045    4046
CTETRA      5805       1     686     743     685     742
CTETRA      5806       1    2824    2825    4039    3140
CTETRA      5807       1    2555    5003    5024    5004
CTETRA      5808       1    1097    1753    2203    1754
CTETRA      5809       1     986    2136    2203     983
CTETRA      5810       1    1892     983    1891    2826
CTETRA      5811       1     742     983    2203    1891
CTETRA      5812       1     849    1753    2827    2203
CTETRA      5813       1    1345    3636    3635    3640
CTETRA      5814       1    2828    2385    2601    2670
CTETRA      5815       1     849    2203     742     686
CTETRA      5816       1    2411    3579    3572    3580
CTETRA      5817       1    2068    2634    3236    2073
CTETRA      5818       1     490    3595    3596    3594
CTETRA      5819       1    1067    2829    3217    3220
CTETRA      5820       1    2068    3188    2069    2073
CTETRA      5821       1    2068    2069    1559    2074
CTETRA      5822       1     906    1559    2214    2194
CTETRA      5823       1    2070    3200    3201    3189
CTETRA      5824       1    2194    4008    3996    4009
CTETRA      5825       1    1557    1559    1562    1560
CTETRA      5826       1     814    3237    3238    3189
CTETRA      5827       1    2408    2778    2783    2409
CTETRA      5828       1    1559    1562     907     906
CTETRA      5829       1    1041    3224    3223    3225
CTETRA      5830       1    3201    1040    2070    1041
CTETRA      5831       1    2194    1041    3224    3201
CTETRA      5832       1    2023    2830    2831    2832
CTETRA      5833       1    3202    5634    5635    4009
CTETRA      5834       1    1422    1611     255     256
CTETRA      5835       1    1038    1041    2070    1040
CTETRA      5836       1    1422    1425    1613     254
CTETRA      5837       1    3224    5635    5636    4007
CTETRA      5838       1    2833    3258    3255    3244
CTETRA      5839       1    2616    2630    4104    2628
CTETRA      5840       1    2791    2834    2437    2835
CTETRA      5841       1    1801    1550    1610    1576
CTETRA      5842       1     908    5077    5073    5076
CTETRA      5843       1    1422    1800    1426    1612
CTETRA      5844       1    2634    3258    3236    3235
CTETRA      5845       1    3269    5629    5630    3963
CTETRA      5846       1    3243    5630    3960    3963
CTETRA      5847       1    1801    1551    1424    1422
CTETRA      5848       1    5444    1494    2045    1788
CTETRA      5849       1    2045    1777    5467    5466
CTETRA      5850       1    3446    5910    5781    5684
CTETRA      5851       1    5232    2275    2762    2836
CTETRA      5852       1    1493    1778    1777    2837
CTETRA      5853       1    1487    1376    2366    1489
CTETRA      5854       1    1357    1358     285    1356
CTETRA      5855       1    2838    3269    3963    3961
CTETRA      5856       1    1729      78    2839    2795
CTETRA      5857       1     897    3960    3243    5631
CTETRA      5858       1    1941    2238    1356    1358
CTETRA      5859       1    1941    1930    1527    1623
CTETRA      5860       1    1941    2238    1526    1527
CTETRA      5861       1    5611    2044    5612    1527
CTETRA      5862       1    2641    3927     484    3926
CTETRA      5863       1    2838    3961    2840    1991
CTETRA      5864       1     870    2113    1526    2237
CTETRA      5865       1    2408    2778    4652    4634
CTETRA      5866       1     870    1526    1941    2238
CTETRA      5867       1    2342    3317    5433    3316
CTETRA      5868       1    1526    2113    5723    2237
CTETRA      5869       1    2536     109     409    2146
CTETRA      5870       1    2841    2145    2147    2307
CTETRA      5871       1    2204    4850    4848    4849
CTETRA      5872       1    2836    5228     492    2842
CTETRA      5873       1     948    1564    1424    1549
CTETRA      5874       1    2145    2536    2537    2535
CTETRA      5875       1    2843    5260    2844    5225
CTETRA      5876       1    5168    2081    2537    2734
CTETRA      5877       1    2536    2734    3173    2537
CTETRA      5878       1    2267    2581    2412    2773
CTETRA      5879       1     792    3928    3935    3929
CTETRA      5880       1    2330    3805    3806    3810
CTETRA      5881       1    4887    2478    2650    2845
CTETRA      5882       1    2267    1831    1759    2846
CTETRA      5883       1    2267    1831    2581    1829
CTETRA      5884       1     418     416     700    1759
CTETRA      5885       1    1948    3646    3644    3647
CTETRA      5886       1    1062    4653    2408    2517
CTETRA      5887       1    1944    2627     590    1950
CTETRA      5888       1    4884    2847     503    4883
CTETRA      5889       1    5231    2848    2807    2843
CTETRA      5890       1    2606    2267     975     977
CTETRA      5891       1    2604    2606    2267    2773
CTETRA      5892       1     849    4988    5040    4989
CTETRA      5893       1    1288    3906    3879    3905
CTETRA      5894       1     407    1003    1261     406
CTETRA      5895       1    3809    2632     364    3812
CTETRA      5896       1     364    3878    3805    3804
CTETRA      5897       1     820    3859    3879    3860
CTETRA      5898       1    1003     406    2849    2161
CTETRA      5899       1    1263     865    1261     656
CTETRA      5900       1    1263    1264     865     601
CTETRA      5901       1    1378    2017     214     216
CTETRA      5902       1     472    4610    4609    4627
CTETRA      5903       1     880    2733    2391    2850
CTETRA      5904       1    2851    3782    3792    3793
CTETRA      5905       1    2344    4608    4609    4592
CTETRA      5906       1    1261     406    2161    2852
CTETRA      5907       1     406     656    1479    2852
CTETRA      5908       1    2014    2405    3564    2674
CTETRA      5909       1    2853    4055    4054    4057
CTETRA      5910       1    5174    2535    2464    5173
CTETRA      5911       1    1261    1267     656    2852
CTETRA      5912       1    2464    5170    5668    5171
CTETRA      5913       1    3195    5664    5150    5148
CTETRA      5914       1     903    1001    1003    1061
CTETRA      5915       1    2854    4046    3983    4036
CTETRA      5916       1    1263    1003    1265    2855
CTETRA      5917       1    2854    4046    4044    3984
CTETRA      5918       1    1652    2856    5162    5153
CTETRA      5919       1    2130    3982    4032    4036
CTETRA      5920       1    1003    1265    1850    1264
CTETRA      5921       1    1451    3986    2083    3920
CTETRA      5922       1    1263    1261    1267     656
CTETRA      5923       1    3140    2825    3141    2857
CTETRA      5924       1     979     976     996    2429
CTETRA      5925       1     699     979     972     698
CTETRA      5926       1     600    2058    2741    2208
CTETRA      5927       1    2193     529    1297    1302
CTETRA      5928       1    1806    3153    3137    3152
CTETRA      5929       1    2408    4652    2517    4653
CTETRA      5930       1     531    1303    1712     130
CTETRA      5931       1     540     528     127     539
CTETRA      5932       1     127     273     539     292
CTETRA      5933       1     529    1302    2193     528
CTETRA      5934       1     528     293    1811    2193
CTETRA      5935       1    5378    5866    5892    4243
CTETRA      5936       1    2193     293    1811     296
CTETRA      5937       1     602    1399    2165    2858
CTETRA      5938       1     602    2165    1399     606
CTETRA      5939       1    2375    4834    4835    5867
CTETRA      5940       1     430    1595    3536    1495
CTETRA      5941       1     602    2211    2858    1268
CTETRA      5942       1    1550    4254    4247    4262
CTETRA      5943       1    5810    5866    4817    4243
CTETRA      5944       1     602    1266     601    1268
CTETRA      5945       1     602     610    1266    2168
CTETRA      5946       1     189     602    2211    1399
CTETRA      5947       1    1655    1658    1659     672
CTETRA      5948       1    1658     672    2859    1659
CTETRA      5949       1    1658    1877     211    1657
CTETRA      5950       1     673     668    1032     670
CTETRA      5951       1    1658    1903    1663     237
CTETRA      5952       1    2375    1627    5374    4835
CTETRA      5953       1    2577    3353    3377    3369
CTETRA      5954       1     519    4392    4391    4399
CTETRA      5955       1    2182    5714    3377    5715
CTETRA      5956       1    4290    3379    3381    5772
CTETRA      5957       1    2653    5716    5715    3353
CTETRA      5958       1    2577    3378    3369    3377
CTETRA      5959       1    2304    3378    3383    3380
CTETRA      5960       1    1658    1903     237    1877
CTETRA      5961       1    2860    4906    4907    4909
CTETRA      5962       1    1595    1496    4256    3539
CTETRA      5963       1    1658    1877    1905    1903
CTETRA      5964       1    2182    3377    3383    3378
CTETRA      5965       1    1033    1658    1905    1903
CTETRA      5966       1    2304    3380    3381    3379
CTETRA      5967       1     859    1919     455     458
CTETRA      5968       1    2861    4316    4311    4310
CTETRA      5969       1    1110      52      51      44
CTETRA      5970       1    1938    1405    2204    4849
CTETRA      5971       1    1110      51      52     175
CTETRA      5972       1     688     779    1240    1310
CTETRA      5973       1     690    1110    1111     687
CTETRA      5974       1    2780    4012    4001    4011
CTETRA      5975       1    2836    2842    5224    5228
CTETRA      5976       1    5130    1665    2830    5136
CTETRA      5977       1    1240    1111     687    1309
CTETRA      5978       1    2093    2100    2098    2862
CTETRA      5979       1    2098     499    2197    2243
CTETRA      5980       1    2098    2096    2099    2197
CTETRA      5981       1    2098    2096    1922    2100
CTETRA      5982       1    3252    5661    5660    5115
CTETRA      5983       1     756    1227    1789     789
CTETRA      5984       1     298    1070     300     297
CTETRA      5985       1    1227    1645    2064    2638
CTETRA      5986       1    2064    2059    2060    1789
CTETRA      5987       1    2507    5131    5132    5119
CTETRA      5988       1    1164     707    1138    1139
CTETRA      5989       1    2194    3996    4008    3997
CTETRA      5990       1    3175    5670    5173    5168
CTETRA      5991       1    2291    5032    5116    5033
CTETRA      5992       1    1645    1164     756    1139
CTETRA      5993       1    1580    4046    4036    4041
CTETRA      5994       1     672     227     226    2859
CTETRA      5995       1    1789    1233    1645    1139
CTETRA      5996       1     756     789    1789     238
CTETRA      5997       1    2830    5137    5131    5130
CTETRA      5998       1     226     227    3232    2859
CTETRA      5999       1    1051    1048     952     947
CTETRA      6000       1    2456    1573    2719    2718
CTETRA      6001       1    1051     952     788     947
CTETRA      6002       1    2196    5580    5556    5579
CTETRA      6003       1    2304    3378    3380    3379
CTETRA      6004       1    2637    2477    2242     952
CTETRA      6005       1    1905    1903    2525    1819
CTETRA      6006       1     498    1903    1905    1819
CTETRA      6007       1    1480    5453    5477    5454
CTETRA      6008       1     103    3636    3631    3635
CTETRA      6009       1    2863    1055    2864    5254
CTETRA      6010       1    1958    5211    5212    5250
CTETRA      6011       1    2459    1905    2261    1877
CTETRA      6012       1    1877    1905    2261    2539
CTETRA      6013       1    1658    1904    1905    2539
CTETRA      6014       1    1048    1047    2475    1049
CTETRA      6015       1    4825    5399    5872    5398
CTETRA      6016       1    2583    5392    5389    5393
CTETRA      6017       1    1425     232     231     229
CTETRA      6018       1    1524    1049    1542    2776
CTETRA      6019       1     769    3612    3603    3604
CTETRA      6020       1    1049    1542    2776    1048
CTETRA      6021       1     952    1540    1048    1953
CTETRA      6022       1     952    2637    1048    1540
CTETRA      6023       1    1675    5245    5244    5257
CTETRA      6024       1     952    1835    1048    2637
CTETRA      6025       1    5331    5880    4791    4793
CTETRA      6026       1    2776    4760    2865    2475
CTETRA      6027       1    2866    4756    4793    4780
CTETRA      6028       1    1835    1048    2776    1542
CTETRA      6029       1    1693    5329    5318    5323
CTETRA      6030       1    1553    2867     721    2621
CTETRA      6031       1    2227    4790    4792    4791
CTETRA      6032       1     934     279     936    1855
CTETRA      6033       1    1404     944     953     940
CTETRA      6034       1    5322    5877    4786    5878
CTETRA      6035       1     945    1404    1938     940
CTETRA      6036       1    1405    1404    1938     945
CTETRA      6037       1     944     938     935     934
CTETRA      6038       1    3548    3565    2421    2405
CTETRA      6039       1    2227    4792    4780    4793
CTETRA      6040       1    2227    4792    4793    4791
CTETRA      6041       1     327     319     540     329
CTETRA      6042       1     938     946     935    2050
CTETRA      6043       1    2579    2578    1689    1686
CTETRA      6044       1    1913     944     324    1405
CTETRA      6045       1    2868    5109    5112    5057
CTETRA      6046       1     945     939     938     940
CTETRA      6047       1    3224    5635    4007    4009
CTETRA      6048       1    1382    3911    3976    3977
CTETRA      6049       1    1557    1578    1561    1558
CTETRA      6050       1    1704    3282    1206    3247
CTETRA      6051       1    1559    1562    1560     907
CTETRA      6052       1    2466    3286    3302    3287
CTETRA      6053       1    1559    2447    1560    1558
CTETRA      6054       1    1034    2214    2591    1042
CTETRA      6055       1    2491    5068    5678    5066
CTETRA      6056       1    1557    1561    1575    1584
CTETRA      6057       1    1790    1040    1571    1563
CTETRA      6058       1    4994    2849    2161    4995
CTETRA      6059       1    2068    1559    1774    2074
CTETRA      6060       1    2312    4386    4376    4375
CTETRA      6061       1    4995    2849    1060    4994
CTETRA      6062       1    2028    3286    3301    3302
CTETRA      6063       1    1060    5079    5047    5046
CTETRA      6064       1    1557    1559    1038    1562
CTETRA      6065       1    2214    1562    1042    1038
CTETRA      6066       1    1507     161    1508     931
CTETRA      6067       1     894    2036     159    2005
CTETRA      6068       1    2460    3813    5723    3800
CTETRA      6069       1    1204    2052    2719     162
CTETRA      6070       1     927    1507    1921     931
CTETRA      6071       1    1921     931     532     927
CTETRA      6072       1     483    3925    3898    3436
CTETRA      6073       1    2461    3799    3798    3899
CTETRA      6074       1     931     927    2033    1999
CTETRA      6075       1    2843    2247    2844    5260
CTETRA      6076       1    1473    5729    3418    5730
CTETRA      6077       1     296    1811    2869    5716
CTETRA      6078       1     388     373     168     536
CTETRA      6079       1     167     396     388     535
CTETRA      6080       1    2715    3842    3843    3841
CTETRA      6081       1    2870    3984    2128    2129
CTETRA      6082       1    1595    1495    3539    3536
CTETRA      6083       1    2186    4231    4219    4230
CTETRA      6084       1    2871    2872    1244    2873
CTETRA      6085       1    1567    1507     171    1888
CTETRA      6086       1    2874    3775    3776    3766
CTETRA      6087       1     165     167     164     173
CTETRA      6088       1    1801    1550    1551    1612
CTETRA      6089       1     902     535     168     537
CTETRA      6090       1     398     434     441     164
CTETRA      6091       1    1336    3776    3767    3766
CTETRA      6092       1     166    1567     164     397
CTETRA      6093       1     399     407     401     403
CTETRA      6094       1     167     396     436     388
CTETRA      6095       1    2122    3788    3746    3776
CTETRA      6096       1     755    4216    4217    4191
CTETRA      6097       1    1521    2231     611    1907
CTETRA      6098       1    2319    2303    2304    2182
CTETRA      6099       1    2231    2655    2318    2394
CTETRA      6100       1     121    2685    2649     120
CTETRA      6101       1     117     125     119     110
CTETRA      6102       1     110     116     558     124
CTETRA      6103       1    4256    1595    5387    1496
CTETRA      6104       1     115     110     112     125
CTETRA      6105       1     116     120    1696    1974
CTETRA      6106       1     111     113    1270     112
CTETRA      6107       1    1378    4612    4611    4629
CTETRA      6108       1    1766    4147    3128    4148
CTETRA      6109       1    2804    4124    2875    5000
CTETRA      6110       1    2369    4048    4059    4049
CTETRA      6111       1     110     112     125     113
CTETRA      6112       1    2306    3157    3146    3147
CTETRA      6113       1     120    2685    1212     121
CTETRA      6114       1    3118    5648    5649    4058
CTETRA      6115       1     922    4127     323    4175
CTETRA      6116       1    3127    1385    3112    3111
CTETRA      6117       1     120    2541    1974     123
CTETRA      6118       1     321     322     323     924
CTETRA      6119       1     122     120    1212     121
CTETRA      6120       1     112     111     110     114
CTETRA      6121       1     125    1163    1005    1010
CTETRA      6122       1    1163      37    2271    1948
CTETRA      6123       1    2133    3385    3386    3387
CTETRA      6124       1    1562    1342    1560    1344
CTETRA      6125       1    4388    5768    3376    3367
CTETRA      6126       1    1562    2876    1560     907
CTETRA      6127       1    1509    1560    2447    1578
CTETRA      6128       1    2250    2843    2247    2844
CTETRA      6129       1    1042    2214    2591     905
CTETRA      6130       1    5710    1797    2133     586
CTETRA      6131       1    1557    1042    1035     497
CTETRA      6132       1     644     642    2050    2427
CTETRA      6133       1    3396    2802    4390    4397
CTETRA      6134       1    2153      80     422    2284
CTETRA      6135       1    2090      81     822      76
CTETRA      6136       1      75      76      77     511
CTETRA      6137       1    2228     630    1294     694
CTETRA      6138       1    2612    2057    4942    4941
CTETRA      6139       1      77    1859     511    2090
CTETRA      6140       1    4355    3394    5767    3367
CTETRA      6141       1     515      69    2598    2133
CTETRA      6142       1    1859      77      88    1671
CTETRA      6143       1    1046    1056      87    1047
CTETRA      6144       1    2172    4567    4576    4574
CTETRA      6145       1    2598    2133    2802    3386
CTETRA      6146       1    2391    3742    3740    3741
CTETRA      6147       1      85    3794    3751    3750
CTETRA      6148       1    1532    2656    2548    1970
CTETRA      6149       1    1632    3684    3685    3742
CTETRA      6150       1    1533    1214    2877     755
CTETRA      6151       1    2656      56    2079    2200
CTETRA      6152       1    1819    2540    1820    2436
CTETRA      6153       1    2464    5169    5174    5170
CTETRA      6154       1    2147    3183    3186    3185
CTETRA      6155       1    1075    1580    4036    4035
CTETRA      6156       1    2200    2079    2454    2878
CTETRA      6157       1    1075    4032    4035    4036
CTETRA      6158       1    2200    1758    2453    2454
CTETRA      6159       1    2525    2540    2436    2512
CTETRA      6160       1    4020    2879    1063    1066
CTETRA      6161       1    2821    3179    3183    3184
CTETRA      6162       1    2200    2079    2656    2454
CTETRA      6163       1     143     148     727    1201
CTETRA      6164       1    1957     148     727     143
CTETRA      6165       1     148    1957     729     394
CTETRA      6166       1    2537    3175    5168    3177
CTETRA      6167       1    5173    2081    5168    5167
CTETRA      6168       1     138     145     453     139
CTETRA      6169       1     533    5087    2521     374
CTETRA      6170       1     161    1704     157    1578
CTETRA      6171       1     143    1957    2487    2355
CTETRA      6172       1     726    2488    2880    2487
CTETRA      6173       1    2355    2487     726    1957
CTETRA      6174       1     850     725     724     810
CTETRA      6175       1    2881    4872    1894    2740
CTETRA      6176       1    1957     729     394    2882
CTETRA      6177       1    1573    2465    2455    2456
CTETRA      6178       1     729    2692     732    1956
CTETRA      6179       1     727    1955    1539    1954
CTETRA      6180       1     724     723     729     726
CTETRA      6181       1    2331    3465    3464    3812
CTETRA      6182       1     495    3931    3903    3930
CTETRA      6183       1     148    1539     145    1541
CTETRA      6184       1     804     391    1984    1332
CTETRA      6185       1    1595    5365    5364    5841
CTETRA      6186       1    2883    3282    3274    3273
CTETRA      6187       1     724     810     727     850
CTETRA      6188       1     727     729    1957     726
CTETRA      6189       1     967    1193    1194     966
CTETRA      6190       1      84     969    1471     971
CTETRA      6191       1    2632    3466    3465    3809
CTETRA      6192       1    2651    5088    5086    5090
CTETRA      6193       1      84      83    1128    2326
CTETRA      6194       1     494    3904    3905    3878
CTETRA      6195       1    1744    4000    4010    4011
CTETRA      6196       1    1745    3967    3994    3995
CTETRA      6197       1      83    1128      85      84
CTETRA      6198       1    2884    2330    3805    2885
CTETRA      6199       1    2381    4784    4794    4795
CTETRA      6200       1     969     968     967    1631
CTETRA      6201       1    5316    1360    1975    5325
CTETRA      6202       1      84    1631    2009      86
CTETRA      6203       1    1573    2717    2455    2465
CTETRA      6204       1     480     481     482     334
CTETRA      6205       1    1295     272    1289    2886
CTETRA      6206       1     155    1509    1578    1579
CTETRA      6207       1    2507    5120    5119    5132
CTETRA      6208       1    1959    4780    4781    4775
CTETRA      6209       1    2227    4792    4781    4780
CTETRA      6210       1    1821    1586    3253    3239
CTETRA      6211       1    2410    3582    3578    3544
CTETRA      6212       1    1289     725    1290     723
CTETRA      6213       1    2227    4781    4792    4790
CTETRA      6214       1    1728    3597    3598    3616
CTETRA      6215       1    1289    2687    2689    2887
CTETRA      6216       1    1448    5355    5354    5353
CTETRA      6217       1    2436    1820    3240    3241
CTETRA      6218       1     332     730     838     731
CTETRA      6219       1    2194    4008    4007    4006
CTETRA      6220       1    1821    2888    3253    1586
CTETRA      6221       1    2070    3190    3200    3189
CTETRA      6222       1    2261    1904    1902    3230
CTETRA      6223       1     467     465     466     470
CTETRA      6224       1     466     468     464     467
CTETRA      6225       1    4145    5204    4141    5783
CTETRA      6226       1    4145    5619    3130    3115
CTETRA      6227       1    3129    4148    3128    5620
CTETRA      6228       1     417      20      23      21
CTETRA      6229       1     417     415     469     994
CTETRA      6230       1      99    1807     107    1384
CTETRA      6231       1    2889     323     922     919
CTETRA      6232       1     919     922     921    1485
CTETRA      6233       1    4252    5758    3540    5757
CTETRA      6234       1     107    1387     888    1384
CTETRA      6235       1    1495    3540    3536    3532
CTETRA      6236       1     948     430     432    1497
CTETRA      6237       1    2542     930    1484     925
CTETRA      6238       1    1594    3524    3527    3523
CTETRA      6239       1     930    1385     925    2542
CTETRA      6240       1     933     930    1391     889
CTETRA      6241       1     889    1385    1391    1387
CTETRA      6242       1    2890    4682    4736    4735
CTETRA      6243       1    2166    2891    1666    1196
CTETRA      6244       1    1914    2532    3397    5295
CTETRA      6245       1     104    3631    3630    3634
CTETRA      6246       1    2892     501    2893    2166
CTETRA      6247       1    2512    2718    2455    5114
CTETRA      6248       1    2166     501    2893    1196
CTETRA      6249       1    1935    4837    4956    4955
CTETRA      6250       1    1947    5303    5298    5300
CTETRA      6251       1    1002    5303    5300    5302
CTETRA      6252       1      18    2117    2335    2592
CTETRA      6253       1    1973    1857    2116    5308
CTETRA      6254       1     458    2166     501     369
CTETRA      6255       1    2105    3300    3297    3299
CTETRA      6256       1     522    3925    3435    3932
CTETRA      6257       1    2892    2166    1354     369
CTETRA      6258       1    2574     369    2892    1348
CTETRA      6259       1    2781    3294    3288    3287
CTETRA      6260       1    1354    2892    1348    2891
CTETRA      6261       1    2540    2510    5106    3242
CTETRA      6262       1    3118    4057    5648    4058
CTETRA      6263       1    1454    4047    4048    3987
CTETRA      6264       1    2472     501    2892     369
CTETRA      6265       1    1770    4151    4146    4143
CTETRA      6266       1     921    1486    1485    4129
CTETRA      6267       1    1834    2417    1082    1885
CTETRA      6268       1    1502    1504    1505    1503
CTETRA      6269       1    1805    1385    1387    1814
CTETRA      6270       1    1809    5199    5191    5190
CTETRA      6271       1    2369    4049    4059    4058
CTETRA      6272       1    1818    4153    3124    4152
CTETRA      6273       1    2645    3119    3120    3116
CTETRA      6274       1    1766    4150    4147    4146
CTETRA      6275       1    1516    1514    3988    2359
CTETRA      6276       1    4154    3124    1510    4153
CTETRA      6277       1     562    1505     563    1866
CTETRA      6278       1    1864    1867     562    1505
CTETRA      6279       1    4264    5381    4263    5893
CTETRA      6280       1    2533    1610    1550    1576
CTETRA      6281       1    5375    4833    4832    5869
CTETRA      6282       1    2327    3530    3496    3529
CTETRA      6283       1    2894    1541    1538    1197
CTETRA      6284       1     800    1197     801    2894
CTETRA      6285       1     800    2895    1984    1538
CTETRA      6286       1     800    1538    2894    2895
CTETRA      6287       1    1545    3528    3524    3525
CTETRA      6288       1     392     387     393    1135
CTETRA      6289       1    1197    1541    1538     144
CTETRA      6290       1     804    1332    2356     448
CTETRA      6291       1     445     447     241    1140
CTETRA      6292       1    2101    1990    2102    1889
CTETRA      6293       1    2757    1498    1464     232
CTETRA      6294       1    2566    3138    4037    5643
CTETRA      6295       1    1498     231    2757    2358
CTETRA      6296       1    2720    2829    3226    2823
CTETRA      6297       1    2101     231    1498    1547
CTETRA      6298       1    1546    1499    1564    1424
CTETRA      6299       1    3143    4024    4017    5640
CTETRA      6300       1     948    2101     432    1889
CTETRA      6301       1    1873    5135    5136    5129
CTETRA      6302       1    1657    3213    3204    3210
CTETRA      6303       1    1498    2757    1499    2358
CTETRA      6304       1    1297    2026    2126    1296
CTETRA      6305       1    1075    4031    4035    4032
CTETRA      6306       1    1297    2026    2164    2126
CTETRA      6307       1     599     603    1302     611
CTETRA      6308       1    2364    1297    2026    2164
CTETRA      6309       1    1297    2126    2164    2086
CTETRA      6310       1    1297    2193    1907    2869
CTETRA      6311       1    1199    1198    1154    2847
CTETRA      6312       1     726    2355     727     810
CTETRA      6313       1    1043    4025    4018    4017
CTETRA      6314       1    1043    4018    4025    4026
CTETRA      6315       1     846     813     679    1288
CTETRA      6316       1     847     813     677     681
CTETRA      6317       1     227    3227    3232    3228
CTETRA      6318       1    2017     469    1378     471
CTETRA      6319       1    1235    1378     415    2502
CTETRA      6320       1     430    3536    1595    3538
CTETRA      6321       1    1542    5248    5240    5242
CTETRA      6322       1    2436    2896    3254    1821
CTETRA      6323       1    1235     415     416    2502
CTETRA      6324       1    2377    3104    3179    3180
CTETRA      6325       1    2502     415    2218    1378
CTETRA      6326       1    1866    4829    4827    4828
CTETRA      6327       1     474    2017     469     415
CTETRA      6328       1     414      23    1134      21
CTETRA      6329       1    1231    1933    2187    2244
CTETRA      6330       1     415    2218     994     416
CTETRA      6331       1     415    2218    2221     994
CTETRA      6332       1     419     981     417      21
CTETRA      6333       1     240    1138     449     246
CTETRA      6334       1    1372    4810    4807    4820
CTETRA      6335       1    1574    2436    1820    1821
CTETRA      6336       1     740    5091    5092    5088
CTETRA      6337       1    2718    2456    5113    5110
CTETRA      6338       1    2886    3970    3972    3967
CTETRA      6339       1     583    2897    3914    3915
CTETRA      6340       1    3805    3809    2330     364
CTETRA      6341       1    2053    2898    2876    2198
CTETRA      6342       1    1357    5607    5606    5719
CTETRA      6343       1     287    1811    5716    5715
CTETRA      6344       1    2029    3285    3304    3301
CTETRA      6345       1    1138    1249     240     449
CTETRA      6346       1    2158    5044    5077    5045
CTETRA      6347       1     476    5075    5079    5076
CTETRA      6348       1     445     448     449     446
CTETRA      6349       1    1595    5841    5364    3538
CTETRA      6350       1    5045    2159    2158    4993
CTETRA      6351       1     908     478    5079     476
CTETRA      6352       1    1893    5090    5095    5094
CTETRA      6353       1     792    3901    3928    3929
CTETRA      6354       1    1525    5613    5612    5725
CTETRA      6355       1     702     241    2899    1140
CTETRA      6356       1    2507    5119    5120    5122
CTETRA      6357       1     445     704     804    1140
CTETRA      6358       1     909    5078    5077    5076
CTETRA      6359       1    5092     740     741    5091
CTETRA      6360       1     799     802     708     804
CTETRA      6361       1     741    5093    5094    5041
CTETRA      6362       1    1893    5095    5042    5094
CTETRA      6363       1     199     901    1059    1001
CTETRA      6364       1    4028     583     580     581
CTETRA      6365       1      42     859    2178      52
CTETRA      6366       1    1212    1544    2806    2730
CTETRA      6367       1    2103    3294    3295    3291
CTETRA      6368       1    1213     695    2730    1190
CTETRA      6369       1     122     512    1212     123
CTETRA      6370       1    2883    3278    3273    3274
CTETRA      6371       1    1213    1212     123    2900
CTETRA      6372       1    1212     123    2900    2685
CTETRA      6373       1    1212     121    2685    2901
CTETRA      6374       1    1212    1722     121    2901
CTETRA      6375       1    1212    2806    1544    2901
CTETRA      6376       1     810    2698     725     726
CTETRA      6377       1     523    3925    3436    3435
CTETRA      6378       1     483     485    3898    3925
CTETRA      6379       1     335     331     340     336
CTETRA      6380       1    1289     846    1295    1286
CTETRA      6381       1    1886    1437    1439    4316
CTETRA      6382       1    1593    1564    1499    1495
CTETRA      6383       1    3659    1282    1280    3658
CTETRA      6384       1    2208    4898    4899    4905
CTETRA      6385       1    1098    1095     985     495
CTETRA      6386       1    1027    3649    3650    3651
CTETRA      6387       1    1090    5544    5543    5567
CTETRA      6388       1     364    3904    3878    3804
CTETRA      6389       1    2743    3656    3660    3657
CTETRA      6390       1    2902    3656    3657    3652
CTETRA      6391       1    1395    3643    3649    3642
CTETRA      6392       1     804     447    1332     448
CTETRA      6393       1    2884    3859    3805    3878
CTETRA      6394       1    2744    3642    3651    3641
CTETRA      6395       1    1593    1594    1499    1546
CTETRA      6396       1     393     387     395    2903
CTETRA      6397       1    3660    3656    2743    3659
CTETRA      6398       1     592    4928    4987    4986
CTETRA      6399       1    1362    5582    5605    5606
CTETRA      6400       1     393    1135     387    2903
CTETRA      6401       1     314    5568     315    1090
CTETRA      6402       1    2902    3659    3656    3655
CTETRA      6403       1     580     581     567    4028
CTETRA      6404       1     958    2904    2905    2108
CTETRA      6405       1     393    1956    1135    2691
CTETRA      6406       1    2108    2904    2905    5683
CTETRA      6407       1    2905    3438    3439    3446
CTETRA      6408       1    1135     387    2903    2297
CTETRA      6409       1    1594    1253    2906    4250
CTETRA      6410       1    2800    4311    5683    4312
CTETRA      6411       1    1594    1546    4249    2906
CTETRA      6412       1    2230    4353    4352    4354
CTETRA      6413       1    1359    2025    5719    2026
CTETRA      6414       1     929    3935    3936    3929
CTETRA      6415       1    2159    4994    4993    5045
CTETRA      6416       1     194    2156    2126    2086
CTETRA      6417       1    1135    2297     709     387
CTETRA      6418       1    1439    5681    4316    4317
CTETRA      6419       1    1135     704    2297    2907
CTETRA      6420       1    1135    1140    2908    1956
CTETRA      6421       1    1135    1956    2908    2691
CTETRA      6422       1     404     439     406    1479
CTETRA      6423       1    2028    3285    3301    3286
CTETRA      6424       1    1135     704    2907    2908
CTETRA      6425       1      70     878      34    1812
CTETRA      6426       1     910      61      65     916
CTETRA      6427       1     878    2909    2732    1616
CTETRA      6428       1    2904    3304    3284    3305
CTETRA      6429       1    1616    2556      70      65
CTETRA      6430       1    1616    2787     916    2426
CTETRA      6431       1    3438    5684    5626    5910
CTETRA      6432       1     286    1798    1811    5714
CTETRA      6433       1      60      33      63     546
CTETRA      6434       1    2182    5714    3382    3383
CTETRA      6435       1      70    2793    2370    2263
CTETRA      6436       1    2238    5722    5609    5721
CTETRA      6437       1    2230    4336    4352    4353
CTETRA      6438       1     297    2793    2263    2797
CTETRA      6439       1      64     878      34      70
CTETRA      6440       1    2260    3382    5714    5713
CTETRA      6441       1    1812    2909    2732     878
CTETRA      6442       1      70    2732    2793    2790
CTETRA      6443       1    1793    5713    5601    5600
CTETRA      6444       1    1594    3523    3527    5756
CTETRA      6445       1    2597    1210    3373    1796
CTETRA      6446       1    2208    4899    2741    4911
CTETRA      6447       1    2303    4291    4385    4374
CTETRA      6448       1    2154    4294    4335    4336
CTETRA      6449       1    1210    3386    3366    3387
CTETRA      6450       1    1920    5558    5557    5581
CTETRA      6451       1    3373    1798    5712    5713
CTETRA      6452       1     757     766     764    2910
CTETRA      6453       1     766     307    2911    2910
CTETRA      6454       1     918    2173     911    2912
CTETRA      6455       1      96     789     276    1227
CTETRA      6456       1     306     714    1069    1073
CTETRA      6457       1     975    1829    2582    1830
CTETRA      6458       1     306     766    1071    1068
CTETRA      6459       1     766    1894     765    2911
CTETRA      6460       1    1071     766     307    1894
CTETRA      6461       1    1865    5357    5399    5410
CTETRA      6462       1     248    2913     583     580
CTETRA      6463       1    2910     766     308    1167
CTETRA      6464       1    1396    5378    4243    4817
CTETRA      6465       1     301    1070    2262     310
CTETRA      6466       1     392     144     149    1197
CTETRA      6467       1     964     706     966     965
CTETRA      6468       1    1193    2294     971    2326
CTETRA      6469       1    2693    3520    2695    3517
CTETRA      6470       1    1767    1193    2294     971
CTETRA      6471       1    1191    4835    4816    4815
CTETRA      6472       1    5378    4243    5892    4265
CTETRA      6473       1     375    5086    5085    5090
CTETRA      6474       1    2471    5064    5048    5074
CTETRA      6475       1    2463    3814    3462    3813
CTETRA      6476       1    1193    1122     386    2673
CTETRA      6477       1     386     803    1193     387
CTETRA      6478       1     966     971    1767     706
CTETRA      6479       1    1193     387    2295    2914
CTETRA      6480       1    1193    2914     386     387
CTETRA      6481       1     961    1881    2474    2915
CTETRA      6482       1     955     181    2915     961
CTETRA      6483       1     955    1881     989     962
CTETRA      6484       1     181    1942     184    1949
CTETRA      6485       1    1996    1981    1982     182
CTETRA      6486       1    3327    5417    2745    5690
CTETRA      6487       1    2915    1878    2815    2001
CTETRA      6488       1     181     182    2915    1982
CTETRA      6489       1     523    3456    3434    3435
CTETRA      6490       1     792    3928    3901    3900
CTETRA      6491       1    3263    3288    2035    3264
CTETRA      6492       1    3296    5653    5071    3292
CTETRA      6493       1    5062    3290    5656    3266
CTETRA      6494       1    1358    5720     941    5721
CTETRA      6495       1    4750    4766    2637    4760
CTETRA      6496       1    2001    2915    2814    2815
CTETRA      6497       1     182    2001    2915    1996
CTETRA      6498       1     689     695     770     508
CTETRA      6499       1     275    2346    3639    3638
CTETRA      6500       1    5241    5886    4765    4706
CTETRA      6501       1     510     509    2916     768
CTETRA      6502       1     510     506     505    2917
CTETRA      6503       1    2776    4760    4766    4763
CTETRA      6504       1     589    1965     769     588
CTETRA      6505       1     505    2917    1964     510
CTETRA      6506       1     508     511     694     695
CTETRA      6507       1    1723    1728    1729      78
CTETRA      6508       1     777      52    1918     175
CTETRA      6509       1    1929     500    1922    2100
CTETRA      6510       1    1865    1461    5372    1476
CTETRA      6511       1    1880    2285    1762    2822
CTETRA      6512       1    2588     290     294    1620
CTETRA      6513       1    2786    2759    3796    3790
CTETRA      6514       1    1594    4249    1546    4253
CTETRA      6515       1     583     580    3915    3981
CTETRA      6516       1    2595    4491    4596    4597
CTETRA      6517       1    2673    2914    2295    3667
CTETRA      6518       1    2232    2197    5554    5555
CTETRA      6519       1     499    2588    1922    2232
CTETRA      6520       1    2045    1493    1487    1777
CTETRA      6521       1     206    5424    5423    5447
CTETRA      6522       1    2197    2232    1621    5555
CTETRA      6523       1    2197    2141    1785    2196
CTETRA      6524       1     294     288     285    1620
CTETRA      6525       1    2582    1830    4204    4182
CTETRA      6526       1     581    4027    4028    4023
CTETRA      6527       1    2313    3149    3172    3176
CTETRA      6528       1    1580    4036    4035    4041
CTETRA      6529       1     226    3218    3217    3231
CTETRA      6530       1    2229    1481    2348    2097
CTETRA      6531       1     491    3594    3596    3587
CTETRA      6532       1    1447    2415    2918    2919
CTETRA      6533       1    2773    2606    4181    4180
CTETRA      6534       1    5901    5480    2348    2349
CTETRA      6535       1    2254    2445    2348    2622
CTETRA      6536       1    1859    1671     630    1294
CTETRA      6537       1    1383    2255    2393    2348
CTETRA      6538       1    2594    2595    2502    4613
CTETRA      6539       1    2412    4599    4493    4598
CTETRA      6540       1    2745    3323    3324    3326
CTETRA      6541       1    2393    5435    5459    5436
CTETRA      6542       1    2349    2348    5901    5458
CTETRA      6543       1    2622    3310    3317    3316
CTETRA      6544       1    2253    2348    1481    2097
CTETRA      6545       1    2253    2255    2348    2268
CTETRA      6546       1    1525    2044    5612    5613
CTETRA      6547       1    5566    1090    5589    5565
CTETRA      6548       1    1090    5589    5565    2044
CTETRA      6549       1    2920    4689    4748    4755
CTETRA      6550       1    2044    1930    5611    1931
CTETRA      6551       1    1928     314    1090    2044
CTETRA      6552       1    1929    1527    1930    1623
CTETRA      6553       1    2044    1931    5565    1090
CTETRA      6554       1     716    1619    2617    1123
CTETRA      6555       1    1803    4238    4288    4289
CTETRA      6556       1     714     715    2252     277
CTETRA      6557       1    2476    2362    5273    5263
CTETRA      6558       1    2116    5262    5286    5287
CTETRA      6559       1     716     720    1123     719
CTETRA      6560       1     714    1069    1073    1619
CTETRA      6561       1    1069    1619     716    1123
CTETRA      6562       1    1101    3737    3683    3684
CTETRA      6563       1    1349    4486    4591    4592
CTETRA      6564       1    2314    3780    3779    3790
CTETRA      6565       1    2016    2015    2012    3771
CTETRA      6566       1    2701    3749    3748    3797
CTETRA      6567       1    2701    3748    3792    3797
CTETRA      6568       1     611    1297    1907    2085
CTETRA      6569       1     599     611     610    1398
CTETRA      6570       1    1456    4042    4043    4044
CTETRA      6571       1    1594    5756    3527    4250
CTETRA      6572       1     608    2207    1906     609
CTETRA      6573       1     607    1302     610     600
CTETRA      6574       1    1302    1303     600     609
CTETRA      6575       1     866    1359    2364    2026
CTETRA      6576       1    2654    3962    3963    3960
CTETRA      6577       1     865     531     656    1303
CTETRA      6578       1     897    5631    3958    3960
CTETRA      6579       1    2783    2609    4179    4271
CTETRA      6580       1    1013    1749    2921    2462
CTETRA      6581       1    2743     557    1749    1013
CTETRA      6582       1    1013     565    1282     557
CTETRA      6583       1    1407    4715    4723    4721
CTETRA      6584       1    4204    1829    4214    4203
CTETRA      6585       1     179     185    1279     184
CTETRA      6586       1    2922    4724    4725    4723
CTETRA      6587       1    2794    3568    3569    3588
CTETRA      6588       1     179    1013    1281     990
CTETRA      6589       1    2008    1013    2462     441
CTETRA      6590       1    1361     352     351    1692
CTETRA      6591       1    2619     853    2421    3546
CTETRA      6592       1     183     438    1013     990
CTETRA      6593       1    1406    4721    4719    4716
CTETRA      6594       1     275    3637    3638    3633
CTETRA      6595       1     559    1013    1749     557
CTETRA      6596       1     180       7     990     179
CTETRA      6597       1    2240    4730    4735    4729
CTETRA      6598       1    2477    4743    4737    4708
CTETRA      6599       1    1395    3642    3655    3652
CTETRA      6600       1     499    5551    5575    5552
CTETRA      6601       1     641     937     212      11
CTETRA      6602       1      12      13     936     279
CTETRA      6603       1    2305    3355    3354    3641
CTETRA      6604       1    2902    3655    3656    3652
CTETRA      6605       1    1144      12      13      25
CTETRA      6606       1    1144      18      25      13
CTETRA      6607       1       1       9     126       5
CTETRA      6608       1    5327    5877    5876    4803
CTETRA      6609       1      13    1318     936    1146
CTETRA      6610       1     700    2564    2594    2502
CTETRA      6611       1      10      18      13      25
CTETRA      6612       1    1323    1318      13     207
CTETRA      6613       1    2156    3453    3447    3451
CTETRA      6614       1    2108    3304    5683    3303
CTETRA      6615       1    1630    1631      86    2009
CTETRA      6616       1    4342    4341    2089    4349
CTETRA      6617       1    2923    5048    4997    4996
CTETRA      6618       1    2159    4994    5046    1060
CTETRA      6619       1    1630      86    2759    2009
CTETRA      6620       1    2095    2782    1265    4997
CTETRA      6621       1    5678    2491    5679     582
CTETRA      6622       1    2105    3300    5679    2094
CTETRA      6623       1    4319    2491    5678    5066
CTETRA      6624       1    1535    1220    1216    2376
CTETRA      6625       1    2071    5679    2491    1438
CTETRA      6626       1    1884    1830    4203    1829
CTETRA      6627       1    3197    2459    2261    3196
CTETRA      6628       1    2880    3818    3817    3862
CTETRA      6629       1    1572    3198    3199    3191
CTETRA      6630       1    2524    5151    5106    5139
CTETRA      6631       1    1876    5137    5138    5132
CTETRA      6632       1    1630    2759    2328    2009
CTETRA      6633       1    3251    2325    1704    3257
CTETRA      6634       1     244    3887    3867    3886
CTETRA      6635       1    1630    2328    2759    2758
CTETRA      6636       1      57      56    1756     881
CTETRA      6637       1     345     344    1354     347
CTETRA      6638       1    2476    5262    5263    5273
CTETRA      6639       1    1667    1630    2009    1631
CTETRA      6640       1    2500    5298    5297    5300
CTETRA      6641       1     181    1474    1949    1981
CTETRA      6642       1     644    2811    1324     646
CTETRA      6643       1    2808    3415    3399    3411
CTETRA      6644       1    2688    3416    3357    3409
CTETRA      6645       1    1095    3930    3902    3929
CTETRA      6646       1     641     647     655     654
CTETRA      6647       1    1323     644    1324     646
CTETRA      6648       1    1317     936    1875    1324
CTETRA      6649       1     792    3928    3900    3927
CTETRA      6650       1     373    5053    5052    5085
CTETRA      6651       1    1317    1855     936     279
CTETRA      6652       1      15      12     884     208
CTETRA      6653       1    1358     285    1941     295
CTETRA      6654       1    2535    5173    5174    5167
CTETRA      6655       1    2535    5172    5167    5174
CTETRA      6656       1     287    1362    5716     296
CTETRA      6657       1    3921    2684    2439    2083
CTETRA      6658       1    1362     296    5717    5716
CTETRA      6659       1     285    1362    1357    1622
CTETRA      6660       1    3425    5839    4447    5915
CTETRA      6661       1    2235    3426    3431    3427
CTETRA      6662       1    2334    3424    3423    3426
CTETRA      6663       1    1786    1622    5583    1920
CTETRA      6664       1     647    4427    4419    4426
CTETRA      6665       1    2479    2109    2334    3425
CTETRA      6666       1    1923    1920    5580    5581
CTETRA      6667       1    1923    1920    5581    5582
CTETRA      6668       1    1811    2193    1907     528
CTETRA      6669       1     612    1519     613    2154
CTETRA      6670       1    2924    4882    4462    4461
CTETRA      6671       1     607     871    1907     528
CTETRA      6672       1    1485     930    1492     921
CTETRA      6673       1     906    3991    3996    3997
CTETRA      6674       1    1521    1519    2320    1518
CTETRA      6675       1    2869    1811    2193    1907
CTETRA      6676       1    2783    4634    4272    5805
CTETRA      6677       1     909    5045    5077    5078
CTETRA      6678       1    2783    5805    4616    4634
CTETRA      6679       1    1397     611    2087    2085
CTETRA      6680       1     532    3957    3953    3956
CTETRA      6681       1     611    1398    2087    2230
CTETRA      6682       1    2507    1169    2831    5119
CTETRA      6683       1    1749    1094    2462    1093
CTETRA      6684       1    2743    1013    1282     557
CTETRA      6685       1     582    5067    5065    5068
CTETRA      6686       1    1013    2743    2921    1749
CTETRA      6687       1    1796    1798    5712    3373
CTETRA      6688       1    1057    4025    4024    4030
CTETRA      6689       1    2008    2462     990    2113
CTETRA      6690       1    1013     183     179     565
CTETRA      6691       1     226    3218    3231    3227
CTETRA      6692       1    1092     564    1272    1749
CTETRA      6693       1    1431    1433    2925    2856
CTETRA      6694       1    1749     564    2331    1092
CTETRA      6695       1    2926    3453    3451    3454
CTETRA      6696       1     761    1879    2516    1751
CTETRA      6697       1     180    1011     992     991
CTETRA      6698       1    2662    2655    3443    2164
CTETRA      6699       1    2162    3453    4305    3452
CTETRA      6700       1    1439    4311    4316    5681
CTETRA      6701       1     484    3437    3898    3798
CTETRA      6702       1    2027    3301    3298    3297
CTETRA      6703       1     435    1097     986    2136
CTETRA      6704       1    2340    3389    3391    3392
CTETRA      6705       1    1318    3431    3430    5913
CTETRA      6706       1    1012     438     441    1013
CTETRA      6707       1    4726    2599    5833    5811
CTETRA      6708       1    2593    3413    3418    1478
CTETRA      6709       1    1937    2204    4849    1938
CTETRA      6710       1    2235    3430    3431    3429
CTETRA      6711       1    2605    4405    4412    4413
CTETRA      6712       1    2114    5836    4439    4444
CTETRA      6713       1     183    1012     559    1013
CTETRA      6714       1    1405    4851    4845    4839
CTETRA      6715       1     134     988    2258    2054
CTETRA      6716       1    2340    3389    3392    3390
CTETRA      6717       1     647    4442    4427    4443
CTETRA      6718       1     873    2312    2115    2303
CTETRA      6719       1    2801    3365    3388    3364
CTETRA      6720       1     134     135    1479    2753
CTETRA      6721       1     134    2753    1479    2852
CTETRA      6722       1    2927    2591     905    1344
CTETRA      6723       1     133     134     135    1479
CTETRA      6724       1     134    2852     656    2056
CTETRA      6725       1    1887    1508    1228    1921
CTETRA      6726       1    1887    1888     929     661
CTETRA      6727       1    1818    3122    3126    3123
CTETRA      6728       1    1265    4980    4975    4976
CTETRA      6729       1    1566    1887     928     661
CTETRA      6730       1    2783    2563    4633    4616
CTETRA      6731       1    2451    4918    4912    4917
CTETRA      6732       1    1923    5603    5604    5580
CTETRA      6733       1      69      68      66    2928
CTETRA      6734       1    2321    1309    2929    1308
CTETRA      6735       1    1240    1239    1309    1241
CTETRA      6736       1    1485     926    4128    4136
CTETRA      6737       1    1109     357    1112    1755
CTETRA      6738       1    2408    4634    2783    2778
CTETRA      6739       1    3384    3393    2930    3385
CTETRA      6740       1    1309    2614    2619    2929
CTETRA      6741       1    1309    1241    2321    2421
CTETRA      6742       1    1833    2084     933    2359
CTETRA      6743       1    1309    1241    2421    2619
CTETRA      6744       1     851      42     748     856
CTETRA      6745       1    3446    3452    4309    5781
CTETRA      6746       1     358     828    1815     830
CTETRA      6747       1     854    2178    2931    1919
CTETRA      6748       1    2926    3454    4305    3453
CTETRA      6749       1    2162    3452    3448    3453
CTETRA      6750       1     831     638    1112     640
CTETRA      6751       1     919    1450     921     920
CTETRA      6752       1      52    2181    1918     175
CTETRA      6753       1    5047    1060    4995    2923
CTETRA      6754       1    2165    4919    4922    4920
CTETRA      6755       1     957    1995     982    2932
CTETRA      6756       1    2613    3441    5718    3444
CTETRA      6757       1    2703     545    2553    1226
CTETRA      6758       1    1127    3794    3790    3789
CTETRA      6759       1    1548    4694    4785    4796
CTETRA      6760       1    1485     922    4129    4128
CTETRA      6761       1    1226     765    2553    2702
CTETRA      6762       1    1387     107     889    1385
CTETRA      6763       1    1961    4802    4809    4798
CTETRA      6764       1    1501    4778    4783    4784
CTETRA      6765       1    4795    2404    4796    4798
CTETRA      6766       1     970    1835    4706    1306
CTETRA      6767       1    1226    2281    1403    2702
CTETRA      6768       1    1226     765    2702    1225
CTETRA      6769       1      90     372     379      92
CTETRA      6770       1    5241    4706    5214    5886
CTETRA      6771       1    1076    1449     545    2553
CTETRA      6772       1      90      97     377     380
CTETRA      6773       1    2783    2778    4633    2563
CTETRA      6774       1    2058    2490    2057    4941
CTETRA      6775       1    1739    2933    1741    2585
CTETRA      6776       1    1836    2763    1177    2513
CTETRA      6777       1    2713    2703    1226     545
CTETRA      6778       1     545     542    2713    2714
CTETRA      6779       1     545    2422     542    2714
CTETRA      6780       1    1449    2555    1273    2422
CTETRA      6781       1    5203    3115    1780    1813
CTETRA      6782       1    2422     100     322     717
CTETRA      6783       1    2280    2281    1651    5161
CTETRA      6784       1    2422    2554    2714     545
CTETRA      6785       1    1226    2278    1435    1403
CTETRA      6786       1     645    3127    2542    3126
CTETRA      6787       1    1485    4136    4128    4135
CTETRA      6788       1    1385    3160    3112    3111
CTETRA      6789       1    1449    1076    2555    2553
CTETRA      6790       1     713      98      93    2791
CTETRA      6791       1    1513    2384    4130    1486
CTETRA      6792       1    1123    4071    4072    4092
CTETRA      6793       1     845    5179    5023    5022
CTETRA      6794       1     824     827     860     828
CTETRA      6795       1    1818    4150    1484    4153
CTETRA      6796       1     925    1783    1769    2542
CTETRA      6797       1     350    1361     352     351
CTETRA      6798       1     826    1448     350     353
CTETRA      6799       1    1387    3164    3160    3159
CTETRA      6800       1    1484    1766    1770    4150
CTETRA      6801       1    1448    2397    2396    2919
CTETRA      6802       1      99     106     100     102
CTETRA      6803       1    2934    2835    2439    3876
CTETRA      6804       1    1391    3159    3111    3110
CTETRA      6805       1     379     887     372     886
CTETRA      6806       1    1080    1321    1700    1870
CTETRA      6807       1      99     109    1808    2310
CTETRA      6808       1    2534    5384    5376    5369
CTETRA      6809       1     888    1458    2309    2935
CTETRA      6810       1    4262    4246    1550    4261
CTETRA      6811       1    2533    4261    1610    4264
CTETRA      6812       1    1610    4264    1624    2533
CTETRA      6813       1    2077    1444    1443    2936
CTETRA      6814       1    2358    3525    3535    3515
CTETRA      6815       1    1337    4245    4241    4244
CTETRA      6816       1    2543    1258     353    2936
CTETRA      6817       1    2936    2816    2543    1258
CTETRA      6818       1     629    1677    1259    1258
CTETRA      6819       1     629     507     631     634
CTETRA      6820       1    1107    3683    3747    3748
CTETRA      6821       1    1259    1677    2245    2076
CTETRA      6822       1    1259    1443    1258    2077
CTETRA      6823       1    1254    3525    3515    3514
CTETRA      6824       1    2236    2517    1062    2402
CTETRA      6825       1    1660    4239    4266    4240
CTETRA      6826       1    1337    4264    4245    4244
CTETRA      6827       1    4265    5381    1624    4264
CTETRA      6828       1    5382    4265    5381    1624
CTETRA      6829       1    1627    5377    5373    5376
CTETRA      6830       1     629    1958    1258    2816
CTETRA      6831       1     773    4557    4558    4562
CTETRA      6832       1    1550    4257    4254    4262
CTETRA      6833       1    2067    2119    4696    4697
CTETRA      6834       1    1258    1677    2076    1958
CTETRA      6835       1    2101    1547    1498    1497
CTETRA      6836       1    2937    4249    4237    4248
CTETRA      6837       1    1031    1057    1045    1044
CTETRA      6838       1    1496    4260    4256    4255
CTETRA      6839       1    1763    2938    1885    1081
CTETRA      6840       1    1045    4026    4025    4030
CTETRA      6841       1    2567    1720    2568    2569
CTETRA      6842       1    2572    3185    3145    3171
CTETRA      6843       1    1014    1032    1902     498
CTETRA      6844       1    2939    4023    3980    3979
CTETRA      6845       1    1064    1057     776    2568
CTETRA      6846       1    1469    3416    3414    3412
CTETRA      6847       1     572     574     571     568
CTETRA      6848       1    2569    1064    1020    2571
CTETRA      6849       1    2511    5115    3252    5660
CTETRA      6850       1    2808    3415    3411    3414
CTETRA      6851       1    1202    1469    2592    2593
CTETRA      6852       1    2922    4721    1406    1407
CTETRA      6853       1    3412    2808    3411    3414
CTETRA      6854       1     486    1032    1171     834
CTETRA      6855       1    1568    1569    2886    1295
CTETRA      6856       1     272    1745    2887    2886
CTETRA      6857       1    1973    5891    4727    4726
CTETRA      6858       1    1086    2940    1081    1084
CTETRA      6859       1    2738    1740    3505    1183
CTETRA      6860       1    1584     496     498    1819
CTETRA      6861       1    5272    5887    4718    5888
CTETRA      6862       1    1591    1568    1569    1746
CTETRA      6863       1    1568    1569    1745    2886
CTETRA      6864       1     332     481     333     334
CTETRA      6865       1    2775    5289    5290    5265
CTETRA      6866       1     617    5290    5305    5297
CTETRA      6867       1     623    5304    5305    5289
CTETRA      6868       1    4963    4960    2259    4966
CTETRA      6869       1     271     272    2687     269
CTETRA      6870       1     924     923     100     322
CTETRA      6871       1    2111    4477    4476    4848
CTETRA      6872       1      99    2310    2309     109
CTETRA      6873       1    5061    3277    5657    5057
CTETRA      6874       1      33      71      34      36
CTETRA      6875       1    3296    5065    5653    5652
CTETRA      6876       1    5657    5658    5057    3277
CTETRA      6877       1      70    2793    1812    2370
CTETRA      6878       1     908    5073    5072    5076
CTETRA      6879       1     389    5043    5042    5095
CTETRA      6880       1     522    3933    3925    3932
CTETRA      6881       1    2905    3305    3283    5684
CTETRA      6882       1    2838    3962    3961    3963
CTETRA      6883       1    2738    1183    3505    3502
CTETRA      6884       1    2104    3294    3302    3297
CTETRA      6885       1     878     916     879    2941
CTETRA      6886       1    2838    3962    3939    3961
CTETRA      6887       1    1991    3433    3270    3961
CTETRA      6888       1    1616     916     878    2909
CTETRA      6889       1     943    3456    3455    3434
CTETRA      6890       1    1901    3942    3935    3934
CTETRA      6891       1      70    1812      34    2370
CTETRA      6892       1    2157    3440    3441    3447
CTETRA      6893       1     320      95     322     321
CTETRA      6894       1    2034     523     522     485
CTETRA      6895       1    5357    5870    4832    4830
CTETRA      6896       1    2511    2718    2436    2512
CTETRA      6897       1    1463    4702    4813    1462
CTETRA      6898       1    1078    2763    1762    1837
CTETRA      6899       1      92     717     542     545
CTETRA      6900       1    1735    2765    1743    1742
CTETRA      6901       1     718    1449    1669    1273
CTETRA      6902       1    1595    3537    3536    3539
CTETRA      6903       1    1803    4288    1230    1804
CTETRA      6904       1    2511    2436    3254    3252
CTETRA      6905       1     321     320    2452     323
CTETRA      6906       1    1867    1477     562    2559
CTETRA      6907       1    1585    2533    1550    1576
CTETRA      6908       1     718     321     320    2452
CTETRA      6909       1     949    5386    5367    5366
CTETRA      6910       1    2533    5384    5383    5379
CTETRA      6911       1     321    2666    1450    2889
CTETRA      6912       1    1585    4258    4257    4261
CTETRA      6913       1    3539    4256    1595    5759
CTETRA      6914       1    2102    5395     432    2942
CTETRA      6915       1     321     861     721    2666
CTETRA      6916       1    3155    5675    5191    5205
CTETRA      6917       1    2556     298      65    1616
CTETRA      6918       1    1485    4128    4129    4135
CTETRA      6919       1     412    2535    1652    5166
CTETRA      6920       1    2369    3988    4048    4049
CTETRA      6921       1    1766    4149    1780    4146
CTETRA      6922       1     299    2556    2943     298
CTETRA      6923       1    1071    2549    1072    1895
CTETRA      6924       1    3129    4149    5620    3130
CTETRA      6925       1    2542    1766    1770    1484
CTETRA      6926       1     297    2556      70    2790
CTETRA      6927       1    2835    3831    3875    3876
CTETRA      6928       1    2556    2558    2550    2379
CTETRA      6929       1     299    2345     298    2943
CTETRA      6930       1     922    2889    4175     323
CTETRA      6931       1     299    2943    2556    2550
CTETRA      6932       1    2944    3156    3167    3150
CTETRA      6933       1    1766    1769    1780    1813
CTETRA      6934       1     299     297    2556     298
CTETRA      6935       1    2115    4379    4375    4381
CTETRA      6936       1     202     625     365     367
CTETRA      6937       1    4361    5821    5820    4855
CTETRA      6938       1    1368    5463    5464    5440
CTETRA      6939       1    2945    2413     313     366
CTETRA      6940       1     313    2110    2945     885
CTETRA      6941       1      15     313     882     885
CTETRA      6942       1    1842    4702    4670    4701
CTETRA      6943       1    2822    1698    1838    1880
CTETRA      6944       1    2585    5310    2586    2587
CTETRA      6945       1    1130    1131    1191    2423
CTETRA      6946       1    1461    4832    4831    4830
CTETRA      6947       1    2388    4831    4832    4833
CTETRA      6948       1    1740    1743    1183    1739
CTETRA      6949       1    1534    4051    5732    3990
CTETRA      6950       1     922    4175    4128    4127
CTETRA      6951       1    1385    1391    1387    3160
CTETRA      6952       1    2946    1761    1699    1762
CTETRA      6953       1    1534    4132    5732    4051
CTETRA      6954       1    1492    3122    3120    3119
CTETRA      6955       1    4053    2853    1454    4055
CTETRA      6956       1     468      20    1880      23
CTETRA      6957       1    2947    2262    2739    2769
CTETRA      6958       1    1763    1885     219    1080
CTETRA      6959       1    1742    1761    1743     224
CTETRA      6960       1    1321    1315    1870    1316
CTETRA      6961       1    2652    1278     685     660
CTETRA      6962       1    1515    4050    3990    3989
CTETRA      6963       1    5733    4131    5732    3990
CTETRA      6964       1     742     743     685     740
CTETRA      6965       1    2652     660     685     740
CTETRA      6966       1     660     170    1890     375
CTETRA      6967       1     659     169     662     660
CTETRA      6968       1     169     375     168     170
CTETRA      6969       1    1510    3125    3121    3120
CTETRA      6970       1    2948    3137    3136    3152
CTETRA      6971       1    2857    3136    3141    3135
CTETRA      6972       1    2940    2938    1081    5312
CTETRA      6973       1    2211    2949    2095    1849
CTETRA      6974       1    2782    2211    2949    2095
CTETRA      6975       1    1886    1849     193    1437
CTETRA      6976       1    1849    1399    2949    2072
CTETRA      6977       1     192    2211    1264    1850
CTETRA      6978       1     634    1443    1259    2078
CTETRA      6979       1    1192     695    1213    1190
CTETRA      6980       1    2597    3375    3367    3376
CTETRA      6981       1    2598    4356    4355    4391
CTETRA      6982       1     695    1190    1192     693
CTETRA      6983       1     507      78    1724    1862
CTETRA      6984       1     631     508     635     507
CTETRA      6985       1     597    1848     500    2100
CTETRA      6986       1    2585    5310    2587    5311
CTETRA      6987       1      66    4399    4406    4407
CTETRA      6988       1     689     694     693     695
CTETRA      6989       1     695     694    1192     511
CTETRA      6990       1    1939    4955    4958    4838
CTETRA      6991       1     631     635     689     640
CTETRA      6992       1     347     369      47    2574
CTETRA      6993       1    2480    4854    4431    4434
CTETRA      6994       1     347     369    1348    1354
CTETRA      6995       1      46     347     345     369
CTETRA      6996       1    2578    4857    4864    4858
CTETRA      6997       1    2610    4432    4429    4435
CTETRA      6998       1      43      46     859     370
CTETRA      6999       1      26    1473    1478    2593
CTETRA      7000       1     349     344     347    1354
CTETRA      7001       1    1858    1938    2204    1937
CTETRA      7002       1     607     609    1302     600
CTETRA      7003       1    1421     343    2187     752
CTETRA      7004       1    2177    4917    4911    4916
CTETRA      7005       1     747    1421    1933     752
CTETRA      7006       1     345     459    1195    1129
CTETRA      7007       1    2088    4351    4350    4349
CTETRA      7008       1    2471    5074    5048    5047
CTETRA      7009       1    2741    4911    4899    4900
CTETRA      7010       1     343    2009    2328    2759
CTETRA      7011       1     370      47    2343     555
CTETRA      7012       1    2817    5335    2940    5334
CTETRA      7013       1    1589    1021    1019    1018
CTETRA      7014       1     605    1401    1400    1682
CTETRA      7015       1    2279    1651    1588    1459
CTETRA      7016       1    2177    4916    2576    4917
CTETRA      7017       1    1021    1588    1587    1459
CTETRA      7018       1     972    1733    1423     973
CTETRA      7019       1    1427    1804     973    1802
CTETRA      7020       1    1422    1611    1613    1612
CTETRA      7021       1    5203    2950    1809    5205
CTETRA      7022       1    2387    1611     256     255
CTETRA      7023       1    1814    3166    3155    3162
CTETRA      7024       1    2148    4927    5826    4926
CTETRA      7025       1    2149    4917    4924    4926
CTETRA      7026       1    1736    2584    2586    1737
CTETRA      7027       1    2106    3512    2951    2584
CTETRA      7028       1    2101    2106    2327    2102
CTETRA      7029       1    2494    3670    3669    3844
CTETRA      7030       1    2106    2102    2583    2951
CTETRA      7031       1    2106    2951    3496    2327
CTETRA      7032       1    1203    1202    2602      17
CTETRA      7033       1    2494    3670    3727    3669
CTETRA      7034       1    1203      17    1947    1856
CTETRA      7035       1    2940    1081    5334    5312
CTETRA      7036       1    2602    1845    2518     425
CTETRA      7037       1    2526    5105    5104    5133
CTETRA      7038       1    1202    2808    2602      17
CTETRA      7039       1    1982     182    2915    1996
CTETRA      7040       1    2512    5114    2455    5104
CTETRA      7041       1    2717    5103    5122    5120
CTETRA      7042       1    1763    2940    2587    2938
CTETRA      7043       1     182    1949    1731    1981
CTETRA      7044       1     181    2915     961    1982
CTETRA      7045       1    2205    4366    4371    4372
CTETRA      7046       1    4291    4338    2303    4330
CTETRA      7047       1    2319    3379    3370    3378
CTETRA      7048       1     184    1760    1279    2952
CTETRA      7049       1    1393    2952    2305    1998
CTETRA      7050       1    5421    5694    3330    5693
CTETRA      7051       1    4403    4863    5818    4867
CTETRA      7052       1     945    1405    2204    1938
CTETRA      7053       1     181     282    1942    1474
CTETRA      7054       1     956    1991    2192    2528
CTETRA      7055       1    4397    5765    3396    5764
CTETRA      7056       1    1604    4407    4414    4415
CTETRA      7057       1     956     893    2528    2029
CTETRA      7058       1     956    1775     899     958
CTETRA      7059       1    2110    2945    4836    4475
CTETRA      7060       1    2034    2033    2840     956
CTETRA      7061       1     956    1775     958     957
CTETRA      7062       1    2598    4355    3394    4390
CTETRA      7063       1     957     956     523     943
CTETRA      7064       1    2817    5334    1084    5337
CTETRA      7065       1    2905     943    2904     958
CTETRA      7066       1    2802    3385    3393    3395
CTETRA      7067       1     649    2336    2049    2114
CTETRA      7068       1    2928    4398    4399    4391
CTETRA      7069       1    2598    3386    3395    3394
CTETRA      7070       1    1210    3367    3366    3386
CTETRA      7071       1     956    1775     523    2034
CTETRA      7072       1    2803    1543     768     509
CTETRA      7073       1     634    2078    2407    1443
CTETRA      7074       1     509    1543     768     510
CTETRA      7075       1    2239    2242    2240    4728
CTETRA      7076       1    1209    3650    3637    3357
CTETRA      7077       1    2688     622    3357    3416
CTETRA      7078       1     621    3651    3356    3355
CTETRA      7079       1    1026    2346    3645    3646
CTETRA      7080       1      78    1863    1729    1724
CTETRA      7081       1    3402     633    3406     663
CTETRA      7082       1      76     822    2090     823
CTETRA      7083       1     621    3651    3650    3356
CTETRA      7084       1      75      79      76     505
CTETRA      7085       1    2688    3409    3408    3414
CTETRA      7086       1    2067    1702     355     470
CTETRA      7087       1     354     466      49      50
CTETRA      7088       1     355    1815    1702    1703
CTETRA      7089       1     468      23    1880     749
CTETRA      7090       1     749     359    1420    1698
CTETRA      7091       1     943    3455    3456    3457
CTETRA      7092       1     474    1933     747     465
CTETRA      7093       1    1697     466     360    1702
CTETRA      7094       1    2192    3433    3455    3259
CTETRA      7095       1    5553     499    2232    5576
CTETRA      7096       1     470    1700    2067    1702
CTETRA      7097       1    1870     470    1321    1700
CTETRA      7098       1    1413    4840    4851    4839
CTETRA      7099       1     355    2120     470     466
CTETRA      7100       1    2765    2764    3510    3509
CTETRA      7101       1    2953    3384    5710    5709
CTETRA      7102       1     465    2120     466     470
CTETRA      7103       1    1092     364     362     816
CTETRA      7104       1    2479    3425    3420    5839
CTETRA      7105       1    2603    4426    4425    4446
CTETRA      7106       1    2810    3421    3424    3428
CTETRA      7107       1    2511    5660    3250    5111
CTETRA      7108       1     560    1749     564     557
CTETRA      7109       1    5378    5382    4265    5892
CTETRA      7110       1    1094     362     363     361
CTETRA      7111       1    4265    5893    5382    5381
CTETRA      7112       1    2533    4264    5381    4263
CTETRA      7113       1    2511    2436    2896    3254
CTETRA      7114       1    3498    1761    1743    3509
CTETRA      7115       1    2954    2879    1066    1067
CTETRA      7116       1     435     984     985    1093
CTETRA      7117       1    1272    1092    1271     564
CTETRA      7118       1    1611    1337    1618    1131
CTETRA      7119       1    1097    2203    2136    1754
CTETRA      7120       1    4816    2375    1396    4817
CTETRA      7121       1    1360    1641    5327    4803
CTETRA      7122       1    1396    2375    4816    1191
CTETRA      7123       1    1360    1361    1641    2038
CTETRA      7124       1    5892    4265    5893    5382
CTETRA      7125       1    5810    5866    4243    5892
CTETRA      7126       1    5916    5892    5866    5810
CTETRA      7127       1    1360    4801    1975    2038
CTETRA      7128       1    4154    5624    3125    3124
CTETRA      7129       1    1360    1975    4800    5316
CTETRA      7130       1    3509    2765    1743    1740
CTETRA      7131       1     236    1186     235     248
CTETRA      7132       1    1510    3122    3124    3125
CTETRA      7133       1     673     672    1222    1904
CTETRA      7134       1    1510    3121    4056    3117
CTETRA      7135       1     671     571     572     573
CTETRA      7136       1    1031     674     226    1044
CTETRA      7137       1     668    1171    1663    1033
CTETRA      7138       1    1391    3110    3111    3119
CTETRA      7139       1    1510    3121    3125    4154
CTETRA      7140       1     930     645    1391    1385
CTETRA      7141       1    1662    1171    1664    1663
CTETRA      7142       1    1902     673    1222    1904
CTETRA      7143       1    1486    4133    4134    4130
CTETRA      7144       1     671    1028     673     674
CTETRA      7145       1    1778    2096    2955    2099
CTETRA      7146       1     551    1493    1778    1777
CTETRA      7147       1    1494    1777     551    5468
CTETRA      7148       1    1481    2254    2348    2253
CTETRA      7149       1    5444    1494    5468    2045
CTETRA      7150       1    4145    3130    5619    4149
CTETRA      7151       1    5202    5203    5676    3115
CTETRA      7152       1    1179    2514    1180    3541
CTETRA      7153       1    3130    5619    4149    5620
CTETRA      7154       1    1779    1778    1776    1782
CTETRA      7155       1    1766    4146    4148    4149
CTETRA      7156       1    1776    1778    1779    1777
CTETRA      7157       1    1779    1778    2096    2955
CTETRA      7158       1    1778    2099    2955    2837
CTETRA      7159       1    3155    5191    5675    5674
CTETRA      7160       1    1488    1778    1490    2099
CTETRA      7161       1     281    1772     433    1528
CTETRA      7162       1    5198    2950    1809    5203
CTETRA      7163       1    1780    4145    4149    3130
CTETRA      7164       1     539    1797    1799     538
CTETRA      7165       1     291    1940     292     290
CTETRA      7166       1     943    2904     958     956
CTETRA      7167       1    2905    3457    3438    3455
CTETRA      7168       1     288    1794    1620     290
CTETRA      7169       1    3270    3961    5628    5629
CTETRA      7170       1     290    1794    1795     288
CTETRA      7171       1    2954    4018    1043    1066
CTETRA      7172       1    3433    3270    5628    3259
CTETRA      7173       1    3433    3455    3259    5627
CTETRA      7174       1    1799     290    1795     288
CTETRA      7175       1     290     294    2140    2588
CTETRA      7176       1    5627    3283    5626    3455
CTETRA      7177       1    2904    3284    3283    3305
CTETRA      7178       1    1940     290     294    2140
CTETRA      7179       1    2476    5889    4720    4722
CTETRA      7180       1    2116    4722    4725    5262
CTETRA      7181       1    1528    5727    1279    1760
CTETRA      7182       1    2476    1406    2922    4721
CTETRA      7183       1    1929    1940    1527    1623
CTETRA      7184       1    2922    1407    4723    4721
CTETRA      7185       1     230    1322    1742     225
CTETRA      7186       1    1525    1528    1527     316
CTETRA      7187       1    2112    4727    4725    4724
CTETRA      7188       1    1409    1411    2362     624
CTETRA      7189       1    1528     316    5727    5728
CTETRA      7190       1    1088     315    5568    1090
CTETRA      7191       1    1898    1899     220     963
CTETRA      7192       1    1837    1740    3505    3498
CTETRA      7193       1    2639    1242    1308    1307
CTETRA      7194       1    1713    2413    2112    1716
CTETRA      7195       1     359    1307    1242    1698
CTETRA      7196       1    1242    1420    2674    2405
CTETRA      7197       1    1239    1242    1308    1241
CTETRA      7198       1    5840    5365    5759    3537
CTETRA      7199       1    1242    2321    1308    1241
CTETRA      7200       1    2405    1420    1241    1242
CTETRA      7201       1    2586    1900    5390    5393
CTETRA      7202       1    1297    2193    2869    2364
CTETRA      7203       1     194    2157    2126    2156
CTETRA      7204       1    4256    5387    5365    5898
CTETRA      7205       1    2126    2156    3444    2164
CTETRA      7206       1    2956    3507    1741    3500
CTETRA      7207       1    5914    5840    5898    5759
CTETRA      7208       1    5387    4260    5386    5897
CTETRA      7209       1    1585    5386    4259    5385
CTETRA      7210       1    4256    5898    4260    5387
CTETRA      7211       1    4256    5759    5898    5365
CTETRA      7212       1    2106    2327    3496    2107
CTETRA      7213       1    1297    1296    2364    2026
CTETRA      7214       1    1496    4256    4260    5387
CTETRA      7215       1     430    3538    1595    5364
CTETRA      7216       1    2126    1296    2026     198
CTETRA      7217       1    2327    1497    3530    1547
CTETRA      7218       1    1595    5364    5365    5366
CTETRA      7219       1    2126    3444    5718    2164
CTETRA      7220       1     950    5362    5367    5368
CTETRA      7221       1     406    2753    2161    2852
CTETRA      7222       1    2343    4591    4607    4592
CTETRA      7223       1    1448    5346    5354    5347
CTETRA      7224       1    2759    3794    3750    3796
CTETRA      7225       1     401     903    1003     406
CTETRA      7226       1    1003     406    1061    2849
CTETRA      7227       1    5883    5249    5884    4763
CTETRA      7228       1    1061    1765    2849     406
CTETRA      7229       1     400     403     401     942
CTETRA      7230       1    1003    1264     401     407
CTETRA      7231       1     401    1264    1001     197
CTETRA      7232       1    3590    2762    2275    3567
CTETRA      7233       1    1676    4757    4756    4780
CTETRA      7234       1    2668    4307    4299    4300
CTETRA      7235       1    2642     495    1095    3930
CTETRA      7236       1     996    2957     973    1804
CTETRA      7237       1     699     977     973     996
CTETRA      7238       1    1401    4346    4344    4350
CTETRA      7239       1    2926    3451    3450    3454
CTETRA      7240       1    1847    5594    5593    5617
CTETRA      7241       1     633    3358    2416    3359
CTETRA      7242       1    2954    1043    1044    1066
CTETRA      7243       1    2027    3297    2105    2104
CTETRA      7244       1    2027    5681    1439    2105
CTETRA      7245       1     899    2027    2108    1436
CTETRA      7246       1    2958    3405    3397    3398
CTETRA      7247       1    2712    5180    5186    5188
CTETRA      7248       1    2439    3875    3894    3895
CTETRA      7249       1    1810    3153    3158    3159
CTETRA      7250       1    2027    3303    2029    2108
CTETRA      7251       1    2130    3982    4036    3983
CTETRA      7252       1    3303    5681    1439    2027
CTETRA      7253       1     610    1266    2168    2177
CTETRA      7254       1    1407    4715    4711    4714
CTETRA      7255       1    2116    2362    5263     624
CTETRA      7256       1    2482    4432    4430    4429
CTETRA      7257       1     605     602    1399     606
CTETRA      7258       1    2211    1265    1850    2095
CTETRA      7259       1     602    2211    1399    2858
CTETRA      7260       1    2104    3302    3301    3297
CTETRA      7261       1    2954    3100    4017    5639
CTETRA      7262       1     523    3456    3435    3458
CTETRA      7263       1    2001    2003    2815    2814
CTETRA      7264       1    1484    4135    4134    4150
CTETRA      7265       1    1818    1492     645    3122
CTETRA      7266       1    1510    3120    3122    3125
CTETRA      7267       1    2211    1399    2858    2949
CTETRA      7268       1     189    1264    2211     601
CTETRA      7269       1    1610    4246    4245    4261
CTETRA      7270       1    1263    1264    2211    1265
CTETRA      7271       1    1610    4245    4264    4261
CTETRA      7272       1    1755    1112     638    2590
CTETRA      7273       1    1738    2765    2764    2107
CTETRA      7274       1    2533    2534    1625    1610
CTETRA      7275       1    2533    1625    2534    5379
CTETRA      7276       1    1108      51    2420     357
CTETRA      7277       1    1585    1549     950    1576
CTETRA      7278       1    1550    4262    4261    4257
CTETRA      7279       1     358     357    1755    1815
CTETRA      7280       1     949    5367    5363    5366
CTETRA      7281       1    2586    5393    2583    1900
CTETRA      7282       1    2107    3495    3494    3516
CTETRA      7283       1    2954    2879    4020    1066
CTETRA      7284       1     357    2404    1548    1755
CTETRA      7285       1    2403     357    2404    1548
CTETRA      7286       1    1299    1283    1338    1284
CTETRA      7287       1    2682    3522    3514    3520
CTETRA      7288       1    2107    3529    3496    3495
CTETRA      7289       1    2695    2425    3518    3520
CTETRA      7290       1    1497    3533    3534    3532
CTETRA      7291       1    1755     830    2590     638
CTETRA      7292       1    3520    2424    2425    3515
CTETRA      7293       1    2420    1548    1112     357
CTETRA      7294       1    2425    1738    1742    2764
CTETRA      7295       1    2542    3112    3126    3127
CTETRA      7296       1     831     636     690    1111
CTETRA      7297       1    1838    1880    1762    2822
CTETRA      7298       1    1766    1769    1783    2542
CTETRA      7299       1    1766    4146    1769    1770
CTETRA      7300       1    1838    1698    2822    2322
CTETRA      7301       1    2959    1836    2763    1838
CTETRA      7302       1    1838    2322    1836    1307
CTETRA      7303       1    1838    1078    1836    2763
CTETRA      7304       1    2098    2862    2139    2960
CTETRA      7305       1    2098    2139    2862    2100
CTETRA      7306       1    2956    5309    5310    5336
CTETRA      7307       1    2396    5353    5356    5355
CTETRA      7308       1    2527    4626    4609    4608
CTETRA      7309       1    1501    4785    4779    4784
CTETRA      7310       1    3565    3558    2421    3563
CTETRA      7311       1    1784    1927    1785    1782
CTETRA      7312       1    2405    3565    3564    3548
CTETRA      7313       1     554    4625    4643    4644
CTETRA      7314       1    2183    4700    4699    4811
CTETRA      7315       1    2066    4666    4697    4698
CTETRA      7316       1    2093    2091    2092    1488
CTETRA      7317       1    2940    5311    5312    5334
CTETRA      7318       1     340    5096    2625    5080
CTETRA      7319       1    1488    2096    1778    2099
CTETRA      7320       1    2831    5131    5119    5118
CTETRA      7321       1    2780    4012    3977    4001
CTETRA      7322       1    2830    5130    5131    5118
CTETRA      7323       1    2196    2141    1920    1621
CTETRA      7324       1    2961    4084    2962    3696
CTETRA      7325       1    3696    4084    5743    5742
CTETRA      7326       1    2096    2141    1785    2197
CTETRA      7327       1    2197    2096    2099    2955
CTETRA      7328       1    4306    5779    3454    5778
CTETRA      7329       1    3325    2499    2745    3331
CTETRA      7330       1     982    3458    3459    3457
CTETRA      7331       1    2098    2862    2269    2093
CTETRA      7332       1    2162    2963    2157    3448
CTETRA      7333       1    2089    4349    4343    4342
CTETRA      7334       1    2226    4310    4307    4314
CTETRA      7335       1    2635    4309    4305    4308
CTETRA      7336       1     161    1558    1707    1704
CTETRA      7337       1    1558    1561    2325    1205
CTETRA      7338       1    2954    3100    5639    3222
CTETRA      7339       1    2226    4314    4316    4310
CTETRA      7340       1    2653    3445    5716    3353
CTETRA      7341       1    2238    5723    5611    5610
CTETRA      7342       1    4983    2752    2753    4972
CTETRA      7343       1     104     275    3634    3633
CTETRA      7344       1     452    1197    1194     149
CTETRA      7345       1    1980     462    1825     461
CTETRA      7346       1     462    1825     461     386
CTETRA      7347       1     803    1767    1193     387
CTETRA      7348       1     149     460     136     386
CTETRA      7349       1     271    3968    3995    3976
CTETRA      7350       1     741    5039    5093    5040
CTETRA      7351       1     386     147    2964     461
CTETRA      7352       1    1893    5094    5042    5041
CTETRA      7353       1     386     460     136     462
CTETRA      7354       1    1584    1035    1563    2134
CTETRA      7355       1    2759    3794    3796    3790
CTETRA      7356       1    2134    3199    2823    1040
CTETRA      7357       1    2965    4606    4623    4624
CTETRA      7358       1    2015    3771    3476    3770
CTETRA      7359       1    1016    1034    1035    1038
CTETRA      7360       1     852     853    3475    2315
CTETRA      7361       1    2421    3545    3546    3565
CTETRA      7362       1    1032    1033     498    1171
CTETRA      7363       1    4390    3396    5765    3395
CTETRA      7364       1    1204    1575    1584    1574
CTETRA      7365       1    2802    3395    3386    3385
CTETRA      7366       1    1902     498    1905    2134
CTETRA      7367       1    2212    2875    5020     524
CTETRA      7368       1    1584    1819    2134    1572
CTETRA      7369       1     964     968     575     967
CTETRA      7370       1     967    1666     575    1196
CTETRA      7371       1    2186    4231    4220    4219
CTETRA      7372       1    1631     968     967    1667
CTETRA      7373       1     964     971     710     969
CTETRA      7374       1     575     965     576     578
CTETRA      7375       1     964     575     578     965
CTETRA      7376       1      66    1911      68      67
CTETRA      7377       1     556    4663    4664    4644
CTETRA      7378       1     554    4624    4643    4625
CTETRA      7379       1    1855     584     586     585
CTETRA      7380       1    1317    1324    1319    1318
CTETRA      7381       1    1317     936    1318    1146
CTETRA      7382       1    2189    4661    4662    4642
CTETRA      7383       1    1317    1855     279    1320
CTETRA      7384       1    2604    2788    2608    2773
CTETRA      7385       1     273     586     584     538
CTETRA      7386       1    2966    4482    4587    4588
CTETRA      7387       1      76      74    2090      81
CTETRA      7388       1    2212    5195    4142    5784
CTETRA      7389       1    1053    5218    5219    5237
CTETRA      7390       1    2744    3642    3649    3651
CTETRA      7391       1     618     620     782     785
CTETRA      7392       1     582    2094    2471    2095
CTETRA      7393       1    2577    3368    3369    3370
CTETRA      7394       1     700    2564    2502    2218
CTETRA      7395       1    2577    3378    3370    3369
CTETRA      7396       1    1264     407     865     197
CTETRA      7397       1    2678    3563    3562    3564
CTETRA      7398       1    2677    3556    3557    3549
CTETRA      7399       1    2855    1261    1263    1003
CTETRA      7400       1    2211    1850    1265    1264
CTETRA      7401       1    1850    2095    5048    2471
CTETRA      7402       1    2492    3671    3695    3726
CTETRA      7403       1    2967    1250    4551    4552
CTETRA      7404       1    2968    4543    4544    4545
CTETRA      7405       1     199    1436    1849    2094
CTETRA      7406       1     900    2467    2094    2471
CTETRA      7407       1     475     900     901    1059
CTETRA      7408       1    1881    4949    4948    4953
CTETRA      7409       1    2239    4681    4710    4736
CTETRA      7410       1    2416    3358    3357    3637
CTETRA      7411       1     617    5289    5305    5290
CTETRA      7412       1    2950    1780    5203    5204
CTETRA      7413       1    2094    2471    2095    1850
CTETRA      7414       1    1809    5203    5199    5198
CTETRA      7415       1    3358    3410     633    2688
CTETRA      7416       1    2688    3416    3409    3414
CTETRA      7417       1    1436    2094     199     899
CTETRA      7418       1     798    4713    4711    4712
CTETRA      7419       1    2360    4164    4165    4172
CTETRA      7420       1    1451    3919    3893    1452
CTETRA      7421       1    1158    4510    4513    4509
CTETRA      7422       1     477     900    2103    2573
CTETRA      7423       1    1594    5756    4253    3523
CTETRA      7424       1    1000     402    2213    1775
CTETRA      7425       1    1564    1546    1551    4254
CTETRA      7426       1     700    2564    2218    2223
CTETRA      7427       1    2573     152    2082     475
CTETRA      7428       1    1424    1549    1801     950
CTETRA      7429       1    2573    3291    2969    2970
CTETRA      7430       1     543    3936     929    3935
CTETRA      7431       1    2573    2969    3291    2103
CTETRA      7432       1    2573     152    2970    2082
CTETRA      7433       1    3361    1934     683    3404
CTETRA      7434       1    3410    3358    3409    2688
CTETRA      7435       1    5865    5915    5839    3420
CTETRA      7436       1    2082     475     477    2573
CTETRA      7437       1    1948    1026    3646    2346
CTETRA      7438       1    4919    1668    4329    4328
CTETRA      7439       1    1668    1679    2165    4329
CTETRA      7440       1    1668    1400    4329    4321
CTETRA      7441       1    2890    4736    2239    2240
CTETRA      7442       1    2500    5297    5298    5294
CTETRA      7443       1    1668    4345    1400    4321
CTETRA      7444       1    2532    5299    1388    3422
CTETRA      7445       1      18    2335    1473    2593
CTETRA      7446       1    2335      18    1473    1145
CTETRA      7447       1    1946    3398    3421    3399
CTETRA      7448       1    2532    3422    1946    3398
CTETRA      7449       1    1668    4326    4904    2971
CTETRA      7450       1    1668    2971    4320    4326
CTETRA      7451       1    1668    2971    4904    2858
CTETRA      7452       1    4328    1668    4326    4904
CTETRA      7453       1    2936    5347    5317    5210
CTETRA      7454       1    1085    2819    2680    2972
CTETRA      7455       1    2971    1399    2858    1668
CTETRA      7456       1    2222    2564    2223    2380
CTETRA      7457       1    1668    1400    4345    1682
CTETRA      7458       1     236     247     235    1185
CTETRA      7459       1     236    1184    1172    1987
CTETRA      7460       1     351    5319    5318    5354
CTETRA      7461       1     246     233     238     241
CTETRA      7462       1    2021    5325    2771    1975
CTETRA      7463       1     234    1225     239    1402
CTETRA      7464       1     235     233     248    1174
CTETRA      7465       1     447     233     241    1176
CTETRA      7466       1     246     449     245     446
CTETRA      7467       1    1243    4278    5753    4282
CTETRA      7468       1    1607     969    2733    1631
CTETRA      7469       1    2930    3390    3392    3393
CTETRA      7470       1    1617    1607     969    2733
CTETRA      7471       1    1631     969    2733    1470
CTETRA      7472       1    2481    4430    4431    4423
CTETRA      7473       1    1629    2758    1630    1632
CTETRA      7474       1    2212     524    5195    5198
CTETRA      7475       1    1631     969    1470    2400
CTETRA      7476       1      84    1631      86    2400
CTETRA      7477       1    1630      86    1631    1632
CTETRA      7478       1    1405    4845    4838    4839
CTETRA      7479       1    1319    3362    5708    3430
CTETRA      7480       1    2212    5204    5784    4141
CTETRA      7481       1     342    1635    1352    1932
CTETRA      7482       1     968    1351    1732    1666
CTETRA      7483       1    2973    3430    2235    3429
CTETRA      7484       1    2133    2953    2802    3385
CTETRA      7485       1     968    1608    1667    1631
CTETRA      7486       1     345    1354    1195    2166
CTETRA      7487       1     115    1211    1160     114
CTETRA      7488       1    2608    2773    4197    4180
CTETRA      7489       1    2586    5310    5393    5390
CTETRA      7490       1    2533    1610    1625    1624
CTETRA      7491       1     121    2647    1074    1696
CTETRA      7492       1    2149    4369    4296    4295
CTETRA      7493       1     122     745     114    1544
CTETRA      7494       1    2597    3375    3372    3373
CTETRA      7495       1    2311    3374    3371    3372
CTETRA      7496       1    2597    3375    3374    3372
CTETRA      7497       1    1544    1212    1722     114
CTETRA      7498       1    4332    4333    3351    5775
CTETRA      7499       1     122    1544     770     745
CTETRA      7500       1    2230    4353    4337    4336
CTETRA      7501       1    4329    5829    4922    4919
CTETRA      7502       1    4328    4919    4904    5830
CTETRA      7503       1    2071    4318    4303    4319
CTETRA      7504       1     745     771    1211     588
CTETRA      7505       1    2647    1974    2210     733
CTETRA      7506       1    2541     120    2685     123
CTETRA      7507       1     122     114     115     110
CTETRA      7508       1    2606     974    4284    2957
CTETRA      7509       1    2606    4182    4181    4284
CTETRA      7510       1    2177    4900    4901    4916
CTETRA      7511       1    2071    5051    5066    4319
CTETRA      7512       1    1974     780    2541    2796
CTETRA      7513       1    2609    2974    4268    4271
CTETRA      7514       1     920     922    4175    4155
CTETRA      7515       1    1917     588    1968     591
CTETRA      7516       1     770     512     117     510
CTETRA      7517       1    2857    3151    3136    3135
CTETRA      7518       1    2975    3110    3153    3159
CTETRA      7519       1    1211    1968     590    1944
CTETRA      7520       1     807     114     808    1270
CTETRA      7521       1    1943    1156     812    1161
CTETRA      7522       1     777     745     455     778
CTETRA      7523       1     455     777     778      52
CTETRA      7524       1    1957     147    2486    2882
CTETRA      7525       1     731    1954    2489    1955
CTETRA      7526       1    2120    4644    4645    4626
CTETRA      7527       1    2120    4664    4645    4644
CTETRA      7528       1    2677    3557    3548    3549
CTETRA      7529       1    1541    2976    2968    1538
CTETRA      7530       1    1539    1200    2924    1955
CTETRA      7531       1     812    1154    1201    1200
CTETRA      7532       1    2840    3433    3434    3455
CTETRA      7533       1    2760    5722    2237    5721
CTETRA      7534       1    2528    3285    3286    3261
CTETRA      7535       1    1539    2976    1954    1955
CTETRA      7536       1    2048    2363    2599    2519
CTETRA      7537       1    2267    2788    2846    2594
CTETRA      7538       1    2363    4850    4847    4478
CTETRA      7539       1     728    2489    1954    1330
CTETRA      7540       1    4153    5624    4154    3124
CTETRA      7541       1    1486    4153    4133    1510
CTETRA      7542       1    2489    1954    2977    1955
CTETRA      7543       1    4264    5893    4265    5381
CTETRA      7544       1    4264    4245    1610    1337
CTETRA      7545       1    2489    1954    1330    1985
CTETRA      7546       1    1624    5377    5379    5382
CTETRA      7547       1    3121    5625    4154    4132
CTETRA      7548       1    1954    1955    2978    2977
CTETRA      7549       1    1984     800    2356    2979
CTETRA      7550       1    3121    4132    4051    5651
CTETRA      7551       1    1984    1954    1985    1330
CTETRA      7552       1    1954    1955    2976    2978
CTETRA      7553       1    2895    1954    1984    1538
CTETRA      7554       1    5651    4132    5731    5625
CTETRA      7555       1    1954    2976    1538    2895
CTETRA      7556       1    1512    2312    4376    2115
CTETRA      7557       1    1534    4050    4051    3990
CTETRA      7558       1    2115    4374    1517    2303
CTETRA      7559       1    2608    4616    4599    4615
CTETRA      7560       1     949     432    5363     950
CTETRA      7561       1    2115    2312    4375    4385
CTETRA      7562       1    1496    4255    4257    4260
CTETRA      7563       1    1585     949    5367     950
CTETRA      7564       1    4148    3129    4149    5620
CTETRA      7565       1    1813    1783    3162    3113
CTETRA      7566       1    4385    2115    2303    4374
CTETRA      7567       1    1780    4144    4146    4149
CTETRA      7568       1    1766    1813    3113    1783
CTETRA      7569       1    2764    3510    3509    3494
CTETRA      7570       1    1520    2115    4380    1517
CTETRA      7571       1    1910    2597    2041    2312
CTETRA      7572       1    2115    1517    4374    4380
CTETRA      7573       1    2404    4796    4799    4695
CTETRA      7574       1    2115    1512    1710    4381
CTETRA      7575       1    1056    1054    1055    1046
CTETRA      7576       1    4595    1378     216    2504
CTETRA      7577       1    2115    4376    1512    4381
CTETRA      7578       1    2383    3508    3493    3509
CTETRA      7579       1    2470    3747    3682    3746
CTETRA      7580       1     731     333    1289     847
CTETRA      7581       1     731     339    2489     337
CTETRA      7582       1    2563    4632    2380    4633
CTETRA      7583       1    2489     337     339    2980
CTETRA      7584       1    2357    2912    4537    4528
CTETRA      7585       1     337     339    2980     338
CTETRA      7586       1     337    1570    2754    2981
CTETRA      7587       1     730     724     725     723
CTETRA      7588       1    2704    3669    3846    3844
CTETRA      7589       1    2155    4402    4395    4394
CTETRA      7590       1     731     724     725     730
CTETRA      7591       1     725     726    2698     723
CTETRA      7592       1     474    1933     465    1234
CTETRA      7593       1    2230    4339    4353    4340
CTETRA      7594       1    1799     586     538    1797
CTETRA      7595       1     749      23    2286     753
CTETRA      7596       1    2982      22      21    2286
CTETRA      7597       1      20    2982      22      21
CTETRA      7598       1     977    2606    2974    2957
CTETRA      7599       1     977    2606    2957     974
CTETRA      7600       1    1853    4915    4913    4918
CTETRA      7601       1    4370    5823    4915    5824
CTETRA      7602       1    1687    4843    4907    4844
CTETRA      7603       1    2206    4373    4370    4368
CTETRA      7604       1     874    2260    2182    1798
CTETRA      7605       1    2286      21    1134      23
CTETRA      7606       1    2328    2332    2851    2244
CTETRA      7607       1    2758    1630      86    2759
CTETRA      7608       1      84    2326    1193     971
CTETRA      7609       1    4297    3454    3450    5778
CTETRA      7610       1     968    1607    1608    1631
CTETRA      7611       1    2662    3450    3451    3443
CTETRA      7612       1     149     386     461     147
CTETRA      7613       1     501    1196     460     502
CTETRA      7614       1     967      84     971     969
CTETRA      7615       1    2608    4616    4179    5804
CTETRA      7616       1     797    4710    4713    4709
CTETRA      7617       1     257     258     786    1846
CTETRA      7618       1     386     462    1825    1122
CTETRA      7619       1     275    1026    2346    3638
CTETRA      7620       1    2240    4729    4736    4728
CTETRA      7621       1      84     971    1471    2326
CTETRA      7622       1    1195    2166    1666    1196
CTETRA      7623       1    5810    5809    4243    4817
CTETRA      7624       1     248     583    1172     579
CTETRA      7625       1     233    2897    1176    1172
CTETRA      7626       1     233     248    2913    1172
CTETRA      7627       1     248     579     580     583
CTETRA      7628       1    2225    2913    2983    1174
CTETRA      7629       1    1207      37     734    1163
CTETRA      7630       1     257    1006    1844    1007
CTETRA      7631       1    2564    2223    4631    2218
CTETRA      7632       1    5731    5732    4132    4051
CTETRA      7633       1    1221    1025    1006      37
CTETRA      7634       1    5909    5731    5625    5651
CTETRA      7635       1    3121    5625    3125    4154
CTETRA      7636       1    1010     125     595    1005
CTETRA      7637       1     710     709    2494    2748
CTETRA      7638       1    1650     710    2492    1472
CTETRA      7639       1    1142    1009    1166    1143
CTETRA      7640       1     445     708     804     704
CTETRA      7641       1     711     969     710    1617
CTETRA      7642       1     964     965     967     575
CTETRA      7643       1     964     968     577     575
CTETRA      7644       1     611     612     610    1398
CTETRA      7645       1     865    1302     531    1303
CTETRA      7646       1     607     600     610    2031
CTETRA      7647       1    2192    3259    3283    3284
CTETRA      7648       1     599     189     602     601
CTETRA      7649       1    2576    2168    2177     610
CTETRA      7650       1     975    2582     974    1830
CTETRA      7651       1    1410    5270    5274    5271
CTETRA      7652       1    4725    5890    5262    4722
CTETRA      7653       1    4725    5286    5890    5891
CTETRA      7654       1     607     609    1906     530
CTETRA      7655       1     742     740     660    1890
CTETRA      7656       1     742     685     660     740
CTETRA      7657       1    5840    3537    5841    5365
CTETRA      7658       1     171     659     662    1566
CTETRA      7659       1    2203    2826     983    2136
CTETRA      7660       1     435    2046     983     436
CTETRA      7661       1     676     681     682     685
CTETRA      7662       1     172     986     662     170
CTETRA      7663       1    3194    5106    5151    5662
CTETRA      7664       1    1571    3191    3239    3240
CTETRA      7665       1     985     987    1096     172
CTETRA      7666       1    1097     435     985    1093
CTETRA      7667       1     662     659    2010    1566
CTETRA      7668       1    2604     700    2564    2788
CTETRA      7669       1     701     700    2220    2222
CTETRA      7670       1    2220     700     416    2218
CTETRA      7671       1    1820    3192    3240    3241
CTETRA      7672       1    3242    5661    5106    5662
CTETRA      7673       1     413     995    2220     994
CTETRA      7674       1     700    2223    2222    2564
CTETRA      7675       1    2984    3547    3474    3558
CTETRA      7676       1    2608    5804    4599    4616
CTETRA      7677       1     701     700    2222     977
CTETRA      7678       1    2322    2677    1242    2822
CTETRA      7679       1    3558    2421    3563     853
CTETRA      7680       1     179    1281    1013    1280
CTETRA      7681       1    2677    3549    3548    3564
CTETRA      7682       1    3545    3544    2321    2410
CTETRA      7683       1       4     992     135     991
CTETRA      7684       1     556    4663    4644    4643
CTETRA      7685       1     183     594    1011    1878
CTETRA      7686       1     989     988    2259    2258
CTETRA      7687       1     134     988     135    2258
CTETRA      7688       1    3179    2821    2841    2377
CTETRA      7689       1    2704    3845    3844    3846
CTETRA      7690       1    1296     529     603    1297
CTETRA      7691       1     134     135    2753    2258
CTETRA      7692       1    1381    3911    3977    3912
CTETRA      7693       1    2915     955     961    1881
CTETRA      7694       1    2311    3372    3371    3380
CTETRA      7695       1    4371    4914    5823    5822
CTETRA      7696       1    4384    5770    3371    3374
CTETRA      7697       1     517    4357    4393    4358
CTETRA      7698       1    4366    4844    5822    5821
CTETRA      7699       1       7     185     869     990
CTETRA      7700       1     178       3       7    1942
CTETRA      7701       1    1734    1690    4360    1709
CTETRA      7702       1    2788    4598    4615    4599
CTETRA      7703       1    4389    5770    3374    5769
CTETRA      7704       1    1011     439    2752    2515
CTETRA      7705       1       1     129       2     130
CTETRA      7706       1     399     405     403     408
CTETRA      7707       1    2244     343    2328    2332
CTETRA      7708       1     343    2244     752    2332
CTETRA      7709       1    5202    5677    5782    3115
CTETRA      7710       1     752     747     750     751
CTETRA      7711       1     858     346    1839     345
CTETRA      7712       1     858     459    1126    2179
CTETRA      7713       1     343    2332    1840    2786
CTETRA      7714       1    5782    5619    3115    5677
CTETRA      7715       1     346      45     858    1839
CTETRA      7716       1    2778    2380    4651    4633
CTETRA      7717       1    4789    5879    5328    5878
CTETRA      7718       1    1210    3387    2133    3386
CTETRA      7719       1     751    2012    2016    2015
CTETRA      7720       1    1110     175    1108      51
CTETRA      7721       1      51    2446      53     555
CTETRA      7722       1     689     508     694     695
CTETRA      7723       1    2245    5251    5258    5259
CTETRA      7724       1    2866    5881    4793    4756
CTETRA      7725       1    1210    1796    5712    3373
CTETRA      7726       1     692    2419     175     174
CTETRA      7727       1     689     692     693     640
CTETRA      7728       1     513     520      69     519
CTETRA      7729       1     810     725     724     726
CTETRA      7730       1    5213    5880    4793    5881
CTETRA      7731       1    2420    4692    4779    4693
CTETRA      7732       1    2847    1150     503    1199
CTETRA      7733       1    2420    1548    4785    1500
CTETRA      7734       1    1501    4778    4784    4779
CTETRA      7735       1     332     731    1289     730
CTETRA      7736       1     728    1954     391    1984
CTETRA      7737       1    2842    5224    5223    5259
CTETRA      7738       1    2783    2608    2609    2563
CTETRA      7739       1    2541    1004    2685    4732
CTETRA      7740       1    2936    5209    5347    5210
CTETRA      7741       1    2489    2985    1329    2981
CTETRA      7742       1    2489    1955    2977    2980
CTETRA      7743       1    3410    3406     633    3408
CTETRA      7744       1     264    5278    5280    5279
CTETRA      7745       1     201    1856     617     623
CTETRA      7746       1    4378    1710    1603     516
CTETRA      7747       1     619    4745    4746    4740
CTETRA      7748       1    3568    3567    2794    3620
CTETRA      7749       1     517      67     518    1602
CTETRA      7750       1      28    3652    3654    3643
CTETRA      7751       1     518     516    4358    1603
CTETRA      7752       1    1606    1708    1511    1512
CTETRA      7753       1    2793    4122    2732    4120
CTETRA      7754       1     741    5041    5040    5093
CTETRA      7755       1    2210    4684    4468    4469
CTETRA      7756       1    2608    2788    4615    4599
CTETRA      7757       1    2041    4382    4387    4388
CTETRA      7758       1    1034    2457    1036    1039
CTETRA      7759       1    1210    2133    5711    1797
CTETRA      7760       1    2793    2263    4119    2370
CTETRA      7761       1    1654    2746    2464     187
CTETRA      7762       1    1073     306     309    1072
CTETRA      7763       1    2870    3891    3918    3892
CTETRA      7764       1    1069    1159     720    1157
CTETRA      7765       1    1069     720    1159    1123
CTETRA      7766       1     351    5318    5347    5354
CTETRA      7767       1    1360    5320    5325    5326
CTETRA      7768       1    2073    3959    3947    3948
CTETRA      7769       1    1069    1123     716     720
CTETRA      7770       1    2073    3236    3187    3235
CTETRA      7771       1    1210    2133    3387    5711
CTETRA      7772       1    1037    4003    4006    4005
CTETRA      7773       1    2194    4006    3997    4008
CTETRA      7774       1    1072    1073    2551     309
CTETRA      7775       1    2311    2304    3381    4290
CTETRA      7776       1     502     452    2986    2987
CTETRA      7777       1    2408    4270    2402    2409
CTETRA      7778       1    2608    4615    2563    4616
CTETRA      7779       1     174    4773    4771    4691
CTETRA      7780       1     805    2987     502     965
CTETRA      7781       1    2420    4662    4693    4694
CTETRA      7782       1     502     452    2987    1197
CTETRA      7783       1    2490    4945    4897    4937
CTETRA      7784       1    2317    4853    4852    4861
CTETRA      7785       1     502    1701    2988     965
CTETRA      7786       1     392     804     803    1135
CTETRA      7787       1    2778    2380    2434    4651
CTETRA      7788       1    1392     565    1393    2952
CTETRA      7789       1    1949    1475    2305    1998
CTETRA      7790       1    1982    2474    2814    2915
CTETRA      7791       1    5812    4437    4674    5811
CTETRA      7792       1    4424    5815    4865    5816
CTETRA      7793       1    1731    1981    1949    1998
CTETRA      7794       1     998    3725    3730    3731
CTETRA      7795       1    1392    1731    1949    1998
CTETRA      7796       1    1636    2728    2301    2169
CTETRA      7797       1    2351    4107    4108    4065
CTETRA      7798       1    1353    2172    4567    2170
CTETRA      7799       1    2301    4500    4582    4501
CTETRA      7800       1    1280     179    1282    1013
CTETRA      7801       1    1760     184     185    1942
CTETRA      7802       1    1474    1981     208    1475
CTETRA      7803       1    1128      85    1129    1120
CTETRA      7804       1    2974    4286    2957    4268
CTETRA      7805       1    1973    2336    2519    2112
CTETRA      7806       1     137     145     148     138
CTETRA      7807       1    2102     431    2951    2327
CTETRA      7808       1    2553    5025    5005    5004
CTETRA      7809       1    1193    1128    1122    2326
CTETRA      7810       1      84    1128    1193    2326
CTETRA      7811       1    1466     312     904    2091
CTETRA      7812       1     545    2714    2552    2554
CTETRA      7813       1    1364    1363     163    1483
CTETRA      7814       1    4981    2855    1265    4974
CTETRA      7815       1    1437    4315    4318    4317
CTETRA      7816       1    2095    4997    5049    4998
CTETRA      7817       1    1465     312    5521     904
CTETRA      7818       1     431    2951    2327    3497
CTETRA      7819       1    2602    1592    2958    2808
CTETRA      7820       1    2686    4590    4589    4605
CTETRA      7821       1    2339    3769    2337     852
CTETRA      7822       1    1466    1465     312    2092
CTETRA      7823       1    1465    5475    5499    1482
CTETRA      7824       1    2989    4484    4539    4483
CTETRA      7825       1    2314    3769    3778    3779
CTETRA      7826       1    2766    3710    3693    3708
CTETRA      7827       1     998    3731    3691    3725
CTETRA      7828       1     312    1482    2092    1465
CTETRA      7829       1    1465     311     312    1482
CTETRA      7830       1    5522    1465    1482     311
CTETRA      7831       1     845    5022    1277    5179
CTETRA      7832       1     243    3823    3867    3868
CTETRA      7833       1    2646    3228    3104    3103
CTETRA      7834       1    2749    5154    5164    5155
CTETRA      7835       1    2229    2862    2269    2349
CTETRA      7836       1    2431    5596    5709    5597
CTETRA      7837       1    2229    1482    5478    1481
CTETRA      7838       1    2110    2112    4677    4676
CTETRA      7839       1    2930    3384    3390    3393
CTETRA      7840       1    1802    2974    4267    1804
CTETRA      7841       1    2254    2622    2255    2367
CTETRA      7842       1    2106    2584    2951    2583
CTETRA      7843       1    2953    3384    5709    3362
CTETRA      7844       1    2622    2445    2348    1383
CTETRA      7845       1    2254    2255    1489    2367
CTETRA      7846       1    1483    5454    1480    2342
CTETRA      7847       1    1191    4704    4816    4705
CTETRA      7848       1    1426    1660    1612    1800
CTETRA      7849       1    1551    4238    4239    4247
CTETRA      7850       1    2387    4703    4814    4815
CTETRA      7851       1    1363    1483    1365    2254
CTETRA      7852       1    1480    5478    1481    5455
CTETRA      7853       1    1490    2253    2097    2268
CTETRA      7854       1    2425    3493    3521    3494
CTETRA      7855       1    1624    4265    4264    4244
CTETRA      7856       1    1482    1480    5478    1481
CTETRA      7857       1    2425    3494    3521    3516
CTETRA      7858       1    5401    2587    5390    5402
CTETRA      7859       1     816    2884     819    2885
CTETRA      7860       1     677     681     336     850
CTETRA      7861       1    2522    4698    4697    4807
CTETRA      7862       1    1618    4245    4240    4241
CTETRA      7863       1    5051    5066    4319    5832
CTETRA      7864       1    1261    2852    2161    2855
CTETRA      7865       1     816    2330    1270    1271
CTETRA      7866       1     821     819     820     813
CTETRA      7867       1     715    2252    2643    2990
CTETRA      7868       1    2990     716    2834     715
CTETRA      7869       1     715    2791    2437    2438
CTETRA      7870       1    2252     715    2061     277
CTETRA      7871       1    2397    2919    2991    2992
CTETRA      7872       1     715    2791    2834    2437
CTETRA      7873       1      98    2791     715    2438
CTETRA      7874       1    2951    3512    3497    5844
CTETRA      7875       1    3545    3565    2421    3548
CTETRA      7876       1    4406    2427      66    4414
CTETRA      7877       1    2519    4674    4478    2363
CTETRA      7878       1    2951    2583    5394    5392
CTETRA      7879       1    1188    4864    4866    4860
CTETRA      7880       1    2520     816    1269     364
CTETRA      7881       1    2316    4860    4851    4858
CTETRA      7882       1    1749    1094    1092    2331
CTETRA      7883       1    1210    3366    5712    5711
CTETRA      7884       1     557    1749     564    2331
CTETRA      7885       1     362    1269     364     361
CTETRA      7886       1     361    2324    1094     362
CTETRA      7887       1    2845    1696    2993    1750
CTETRA      7888       1    1696    2993    1750    2138
CTETRA      7889       1     975    2582    2606     974
CTETRA      7890       1    2825    1453    4042    4052
CTETRA      7891       1     733    1274    2138    1696
CTETRA      7892       1    2138    2007     561     733
CTETRA      7893       1    2951    5844    3497    5391
CTETRA      7894       1     598    5525    5548    5549
CTETRA      7895       1    2994    4959    4965    4937
CTETRA      7896       1    2054    4940    4939    4960
CTETRA      7897       1    2240    4735    4736    4729
CTETRA      7898       1    2138     561     759    1750
CTETRA      7899       1    5262    5890    5889    4722
CTETRA      7900       1      27      38     558      41
CTETRA      7901       1    1882    4720    5888    4718
CTETRA      7902       1     560     561    2138    1750
CTETRA      7903       1     655    1945    2485    2479
CTETRA      7904       1     641     648     642     647
CTETRA      7905       1    1323      13    1318     936
CTETRA      7906       1     655    1945    2334     207
CTETRA      7907       1     655     646    2603     647
CTETRA      7908       1     653    1002    2485     655
CTETRA      7909       1     431    5391    2951    3497
CTETRA      7910       1    1495    3536    3533    3532
CTETRA      7911       1     655    1002    2485    1945
CTETRA      7912       1    1595    3538    3536    3537
CTETRA      7913       1      11     655     207    1945
CTETRA      7914       1    1595    5841    3537    5365
CTETRA      7915       1      11      17      14    1945
CTETRA      7916       1    2307    3181    3182    3173
CTETRA      7917       1    2828    3678    5739    3702
CTETRA      7918       1    2995    3109    3108    3137
CTETRA      7919       1    2554    5188    5023    5179
CTETRA      7920       1    2996    4126    4127    4137
CTETRA      7921       1    2170    1635    1353    1732
CTETRA      7922       1    1351    1353    1666    1354
CTETRA      7923       1     968    1607    1631     969
CTETRA      7924       1    2581    2412    2846    2267
CTETRA      7925       1    1454    4047    4053    4055
CTETRA      7926       1    2314    3770    3779    3780
CTETRA      7927       1    2315    3770    3475    3769
CTETRA      7928       1     641     209     648     654
CTETRA      7929       1    2965    4624    4642    4643
CTETRA      7930       1    2997    4605    4623    4606
CTETRA      7931       1     649    2049     648    2114
CTETRA      7932       1    1127    3794    3789    3795
CTETRA      7933       1     648    4442     642     647
CTETRA      7934       1    1324    2341     646    2811
CTETRA      7935       1    2343    4607    4591    4606
CTETRA      7936       1    1319    3363    3390    3362
CTETRA      7937       1    3425    4447    5760    5915
CTETRA      7938       1    1323      12     937      11
CTETRA      7939       1    4411    5762    3391    3388
CTETRA      7940       1    2341    3389    3363    3364
CTETRA      7941       1    4425    3365    3425    5760
CTETRA      7942       1    2801    5761    3388    3365
CTETRA      7943       1    1317    1324    1875    1319
CTETRA      7944       1     935     644    2050    1875
CTETRA      7945       1    1323    1324    2973     646
CTETRA      7946       1    1317     936    1324    1318
CTETRA      7947       1    1832    1599    1600    1244
CTETRA      7948       1    1600    1684    1828    1683
CTETRA      7949       1    1214    1219    1215      58
CTETRA      7950       1    3156    5193    5191    5674
CTETRA      7951       1     978     699     980     419
CTETRA      7952       1    1685    1237    1684    1236
CTETRA      7953       1    1832    2872    2123    1335
CTETRA      7954       1    2998    3146    3157    3151
CTETRA      7955       1    1822    2935    1458    2998
CTETRA      7956       1    2061    3828    3829    3837
CTETRA      7957       1    1832    1599    2872    1334
CTETRA      7958       1    2974    2957    4286    1804
CTETRA      7959       1    3614    2614    2999    3573
CTETRA      7960       1    1237    1684    1236     696
CTETRA      7961       1    1683    1298    1333    1299
CTETRA      7962       1    1916    1832    2123    1335
CTETRA      7963       1    2420    2419    2446      51
CTETRA      7964       1    1036    3999    2214    3998
CTETRA      7965       1     459    1127     858    1126
CTETRA      7966       1     458     859     345     369
CTETRA      7967       1    2041    4386    4387    4376
CTETRA      7968       1    2206    4914    2205    1854
CTETRA      7969       1    1793    1794    1795    5711
CTETRA      7970       1    1231     474    1933    1232
CTETRA      7971       1    1853    4915    4918    4925
CTETRA      7972       1    2921    3463    3660    3661
CTETRA      7973       1    2828    2620    2834    2990
CTETRA      7974       1     849    5041    4989    5040
CTETRA      7975       1     349    1354     347    1348
CTETRA      7976       1    1441    5236    5233    5222
CTETRA      7977       1    2828    2601    4085    4077
CTETRA      7978       1    2828    3678    4083    5739
CTETRA      7979       1     797    4710    4709    4728
CTETRA      7980       1    1026    3637    3648    3638
CTETRA      7981       1    1478    3418    3419    3413
CTETRA      7982       1     859     455      52    1918
CTETRA      7983       1    2827    1751    2136    1754
CTETRA      7984       1     621    3356    3413    3355
CTETRA      7985       1     771    1964     589    1965
CTETRA      7986       1    2844    5253    5225    5260
CTETRA      7987       1    3620    1729    2794    3597
CTETRA      7988       1    1383    5899    2393    5412
CTETRA      7989       1    3604     768    2916    3615
CTETRA      7990       1    2794    3567    3568    3592
CTETRA      7991       1    1751    1754    2827    1750
CTETRA      7992       1    1751     561    1750     759
CTETRA      7993       1    1401    4346    4345    4344
CTETRA      7994       1    1832    2123    2872    2871
CTETRA      7995       1    2458    3478    3773    3479
CTETRA      7996       1     759     561     594    1751
CTETRA      7997       1    1502    1864    1868    1506
CTETRA      7998       1    1298    1600    1683    1832
CTETRA      7999       1    1097    1751    1754    2136
CTETRA      8000       1    2682    3520    3514    3515
CTETRA      8001       1    2215    5400    5361    5360
CTETRA      8002       1     183     182      32    1878
CTETRA      8003       1    4665    4697    2119    2066
CTETRA      8004       1    1879    1751     761     594
CTETRA      8005       1    2614    3547    3573    3614
CTETRA      8006       1    1751     759     761     594
CTETRA      8007       1    2421    3546    3558    3565
CTETRA      8008       1    1267    2612    1303    2056
CTETRA      8009       1    1599    4185    4281    4186
CTETRA      8010       1     134    1479     656    2852
CTETRA      8011       1    1337    1611    1625    1191
CTETRA      8012       1     202     365      15     313
CTETRA      8013       1    1254    3528    3525    3514
CTETRA      8014       1     261    1409     624    1411
CTETRA      8015       1    1464    1424    1498    1499
CTETRA      8016       1     617     266     201     261
CTETRA      8017       1    1715     625     202    1716
CTETRA      8018       1    2533    5383    5385    5380
CTETRA      8019       1    1445    2413     367    1716
CTETRA      8020       1    1445    2413    2922    1407
CTETRA      8021       1     552    5470    5471    5447
CTETRA      8022       1    2073    3947    3959    5633
CTETRA      8023       1    2073    3235    5633    3959
CTETRA      8024       1     283     330     324    1404
CTETRA      8025       1     944     278     267     934
CTETRA      8026       1    5725    5724    1525    1281
CTETRA      8027       1    1913    1413    1915    2316
CTETRA      8028       1    3899    3927     484    3900
CTETRA      8029       1     909    5045    5078    5046
CTETRA      8030       1    2861    4310    4311    4312
CTETRA      8031       1     532    2447    1792     931
CTETRA      8032       1    2564    2380    4632    2223
CTETRA      8033       1    1993    3267    3271    3268
CTETRA      8034       1    2027    3301    3303    3298
CTETRA      8035       1    2828    3000    2834    2620
CTETRA      8036       1     854     852    2931    2178
CTETRA      8037       1     741    5092    5093    5039
CTETRA      8038       1    1308    2929    2410    1311
CTETRA      8039       1      42     854    2178     852
CTETRA      8040       1      43    2181      52      51
CTETRA      8041       1    2297    3846    3668    3848
CTETRA      8042       1    2296    3846    3669    3668
CTETRA      8043       1    2831    5118    5119    5124
CTETRA      8044       1     856     750    1420    2678
CTETRA      8045       1     853    2678    2315     856
CTETRA      8046       1    2457    3994    3999    4000
CTETRA      8047       1     851    2678    1241    2421
CTETRA      8048       1    1665    5136    5130    5129
CTETRA      8049       1    1747    3995    4000    4001
CTETRA      8050       1    2828    2601    4077    2620
CTETRA      8051       1    1744    4000    4011    4001
CTETRA      8052       1    3977    3978    4012    2780
CTETRA      8053       1     856     852     853     851
CTETRA      8054       1     851    2421    1241    2619
CTETRA      8055       1     852      42     851     856
CTETRA      8056       1    2840    3433    1991    3961
CTETRA      8057       1    3259    5627    3455    3283
CTETRA      8058       1    2963    3448    3452    3446
CTETRA      8059       1     377     239    1175     789
CTETRA      8060       1    4717    4719    1305    4718
CTETRA      8061       1    5273    5888    4720    5889
CTETRA      8062       1      90      91     378     376
CTETRA      8063       1      93    1451    2684    1452
CTETRA      8064       1    2476    2922    2116    4722
CTETRA      8065       1    2362    5263    5264    5270
CTETRA      8066       1    2116    4725    5286    5262
CTETRA      8067       1      90      91     377      97
CTETRA      8068       1     377     789     793     276
CTETRA      8069       1    1452      97      98      93
CTETRA      8070       1      97     380    2870     793
CTETRA      8071       1      97    2063      98     276
CTETRA      8072       1     633    3403    3410    3359
CTETRA      8073       1    3359    2416    3633    3358
CTETRA      8074       1     633    3406    3410    3403
CTETRA      8075       1      97     276     793    2063
CTETRA      8076       1     887    1554      95      93
CTETRA      8077       1    2544    5189    2373    2626
CTETRA      8078       1      93    1452      97     372
CTETRA      8079       1    2212    1780    4141    4144
CTETRA      8080       1    5205    5676    5203    1813
CTETRA      8081       1      94     718    1449    1669
CTETRA      8082       1    3495    3510    2107    3494
CTETRA      8083       1    1130    4673    1062    2423
CTETRA      8084       1    2723      97    2063      98
CTETRA      8085       1    4705    4242    5808    5809
CTETRA      8086       1    2783    4634    4616    4633
CTETRA      8087       1      91     765      96    1076
CTETRA      8088       1    1023    1823     570    1018
CTETRA      8089       1    1396    5378    2375    1624
CTETRA      8090       1    1515    4131    5733    3990
CTETRA      8091       1      90     378      92     379
CTETRA      8092       1    1226    1403    2281    2278
CTETRA      8093       1    1515    1534    4131    3990
CTETRA      8094       1      99     107     106     888
CTETRA      8095       1     143    3001    1943    2488
CTETRA      8096       1    2954    4018    4020    4017
CTETRA      8097       1    2954    4020    5639    4017
CTETRA      8098       1    1943    2355    2488    3002
CTETRA      8099       1    1943    2355    3002     811
CTETRA      8100       1     137     147     149     461
CTETRA      8101       1    1944    1943     142    1951
CTETRA      8102       1    1943    1161    3002    2629
CTETRA      8103       1    2306    2309    2146    1822
CTETRA      8104       1    5842    3538    5364    5841
CTETRA      8105       1     409     542     378     108
CTETRA      8106       1    1822    2935    3157    2306
CTETRA      8107       1    1822    2998    1458    3003
CTETRA      8108       1    1595    3538    3537    5841
CTETRA      8109       1    1022    2144    1822    1823
CTETRA      8110       1    1822    2146    2308    2144
CTETRA      8111       1     371     541    1581    1023
CTETRA      8112       1    2404    2190    2403    4695
CTETRA      8113       1    2563    4615    4633    4616
CTETRA      8114       1    2639    3543    3544    3557
CTETRA      8115       1      90     371     379     372
CTETRA      8116       1     572    1030    4027     675
CTETRA      8117       1    2404    4695    2403    4796
CTETRA      8118       1     675    1555    2721    2217
CTETRA      8119       1    1064     574     572    1065
CTETRA      8120       1    1045     572    1030    4027
CTETRA      8121       1    2832    5118    5117    5130
CTETRA      8122       1     675    1030    4027    4022
CTETRA      8123       1    1031    1030     674    1044
CTETRA      8124       1    2293    5033    5116    5126
CTETRA      8125       1    1380    3978    3912    3977
CTETRA      8126       1     671     673    1028     670
CTETRA      8127       1    1025    3649    3643    3646
CTETRA      8128       1    2305    3419    3354    3355
CTETRA      8129       1    2239    4710    4728    4736
CTETRA      8130       1    1395    3643    3642    3652
CTETRA      8131       1    2201    4681    4736    4682
CTETRA      8132       1     671    1030    1028     674
CTETRA      8133       1     675    1223    1029    1028
CTETRA      8134       1     673    1902    1032    1904
CTETRA      8135       1    1015    1039    1028    1223
CTETRA      8136       1    1066    2720    1063    1017
CTETRA      8137       1     675    1555    1029    1223
CTETRA      8138       1     675     581    4023    4027
CTETRA      8139       1     674    1066    1030    1028
CTETRA      8140       1    1044     674    1066    1030
CTETRA      8141       1    1871    4698    4807    4810
CTETRA      8142       1    2946    3508    3004    1761
CTETRA      8143       1    2163    1552     836    1415
CTETRA      8144       1    1062    4653    5807    4269
CTETRA      8145       1    1186     569     235     248
CTETRA      8146       1     669     672     573     671
CTETRA      8147       1     568    1018     571     569
CTETRA      8148       1    1031    1064     776    1020
CTETRA      8149       1    1535    1635    1932    2376
CTETRA      8150       1    1607     881    1100    1633
CTETRA      8151       1    1629    1607    1100    1633
CTETRA      8152       1    2102    5395    2942    5392
CTETRA      8153       1    1633     880    2733    1607
CTETRA      8154       1    2919    5340    5352    5345
CTETRA      8155       1     473    4666    4646    4665
CTETRA      8156       1    2608    4179    2609    4180
CTETRA      8157       1    2604    2222    2563    2564
CTETRA      8158       1    2168    4901    4902    4921
CTETRA      8159       1    2164    3443    5717    3445
CTETRA      8160       1      63     546      33     880
CTETRA      8161       1    2165    4903    4920    4902
CTETRA      8162       1    2829    3216    3234    3217
CTETRA      8163       1    2829    3217    3220    3216
CTETRA      8164       1     917    1617     968     711
CTETRA      8165       1     910    2302    1637    2300
CTETRA      8166       1     877     910    2302    1637
CTETRA      8167       1    1063    4020    4021    4002
CTETRA      8168       1    1903     237    1876    1663
CTETRA      8169       1      55    1536    1636    1614
CTETRA      8170       1      61     910    1637     916
CTETRA      8171       1     385     384      65     298
CTETRA      8172       1    2524    5106    5105    5139
CTETRA      8173       1    1017    2720    2829    1067
CTETRA      8174       1     382     918     911    2912
CTETRA      8175       1    1616    2379    2789    2731
CTETRA      8176       1     977     973    2607    2222
CTETRA      8177       1    1471    3736    3735    3727
CTETRA      8178       1     910    4534    3005     384
CTETRA      8179       1     548    2080    2079     998
CTETRA      8180       1     548      71    3006     547
CTETRA      8181       1    2080    2656    2443    2548
CTETRA      8182       1     548     547    3007     546
CTETRA      8183       1    2080      71    3008    3006
CTETRA      8184       1    2380    2223    1733    2434
CTETRA      8185       1    2714    5184    5183    5186
CTETRA      8186       1     541    1022     381     409
CTETRA      8187       1    1465    5473    5497    5474
CTETRA      8188       1    1553    2791    2439    2835
CTETRA      8189       1    1553    1450    2934    2683
CTETRA      8190       1    2828    4083    3000    2620
CTETRA      8191       1    1553    2683    1833    1450
CTETRA      8192       1    1863    1861    2807    2250
CTETRA      8193       1    2807    1863    2843    2848
CTETRA      8194       1    2152    2284    1861    2282
CTETRA      8195       1      87    1861    1056    1050
CTETRA      8196       1    2152    2283    1861    1050
CTETRA      8197       1    2599    5811    4437    4441
CTETRA      8198       1    4431    5814    4854    4859
CTETRA      8199       1    1861    2844    2249    2864
CTETRA      8200       1    1861    2250    2844    2807
CTETRA      8201       1    4479    4433    5812    5813
CTETRA      8202       1     202     649     212     209
CTETRA      8203       1    1413     326    4840    4959
CTETRA      8204       1     534    5100    3009    1522
CTETRA      8205       1    1858    1713    2110    2111
CTETRA      8206       1    2317    4852    4860    4861
CTETRA      8207       1    1713    2110    2112    2413
CTETRA      8208       1     202     212     649    1713
CTETRA      8209       1    1426    2777    1802     973
CTETRA      8210       1    2777    2607    2380    2778
CTETRA      8211       1    2777    1802     973    2409
CTETRA      8212       1    2777    2408    2517    2402
CTETRA      8213       1    2777    2408    2778    2517
CTETRA      8214       1    2801    3365    4425    5761
CTETRA      8215       1    2973    3429    3364    3363
CTETRA      8216       1     743     741     742     686
CTETRA      8217       1     682     742     685     660
CTETRA      8218       1     662     661    2010    1096
CTETRA      8219       1     662     661    1566    2010
CTETRA      8220       1     533     658     440    2651
CTETRA      8221       1    2811    2340    2341    4411
CTETRA      8222       1    2445    5455    5478    5479
CTETRA      8223       1    2272    3774    3773    3783
CTETRA      8224       1     742     170     983     390
CTETRA      8225       1     193    2108     958     195
CTETRA      8226       1    1522    2521    5054     627
CTETRA      8227       1    2527    4626    4608    4625
CTETRA      8228       1     199     190     197     192
CTETRA      8229       1    2189    4642    4662    4643
CTETRA      8230       1     162    2883    2040    1206
CTETRA      8231       1     191    1399     192    1886
CTETRA      8232       1    2333    3771    3770    3780
CTETRA      8233       1     356    4663    2403    2190
CTETRA      8234       1    2315    3476    3475    3770
CTETRA      8235       1     193    2108    1439    1436
CTETRA      8236       1     193     195     191    2226
CTETRA      8237       1     193     200     195     958
CTETRA      8238       1    2946    1699    2285    1762
CTETRA      8239       1    2022     352     350    1963
CTETRA      8240       1     352     830     829    2761
CTETRA      8241       1     827    2020     828    1883
CTETRA      8242       1    2763    1762    1838    1078
CTETRA      8243       1    1085    2763    1177    1077
CTETRA      8244       1    2165    4920    4903    4919
CTETRA      8245       1    2052    3009     162    1522
CTETRA      8246       1    5066    2071    2949    5051
CTETRA      8247       1    2949    2491    5050    2095
CTETRA      8248       1     791    3900    3901    3800
CTETRA      8249       1    2277    2712     102    2422
CTETRA      8250       1    2277     101    2712     527
CTETRA      8251       1    2554    2422    2712    1277
CTETRA      8252       1    2422    2712    1277    2277
CTETRA      8253       1    2314    3789    3779    3778
CTETRA      8254       1     197    1296     865     603
CTETRA      8255       1    1126    3778    3787    3789
CTETRA      8256       1     542    2422     100     102
CTETRA      8257       1    2964    1980    3784    1825
CTETRA      8258       1     100    2277     322     923
CTETRA      8259       1    2277     525     527    1276
CTETRA      8260       1    1254    1252    1255     979
CTETRA      8261       1    2275    3595    3590    3592
CTETRA      8262       1     979     996    1252    2429
CTETRA      8263       1     996    1252    2429    2600
CTETRA      8264       1    1464    2937    1252    2600
CTETRA      8265       1    2149    4917    4926    4918
CTETRA      8266       1    1680    4348    4323    4347
CTETRA      8267       1    1252    2429    2600    2785
CTETRA      8268       1    1966    4806    2523    4809
CTETRA      8269       1    1252    2906    1253    2785
CTETRA      8270       1    1564    1546    1424    1551
CTETRA      8271       1    2523    4808    4696    4799
CTETRA      8272       1    3010    1871    4698    2066
CTETRA      8273       1    1464    1252    1545    2757
CTETRA      8274       1     440     658    1181    1340
CTETRA      8275       1    2493    4351    2087    4354
CTETRA      8276       1    1482    5477    5501    5478
CTETRA      8277       1     663    3408    3406    3405
CTETRA      8278       1    1340    2624    1341    1181
CTETRA      8279       1     659    1340    1509     658
CTETRA      8280       1    1340    1341    2624     335
CTETRA      8281       1    2907    3845    3846    3847
CTETRA      8282       1     242    3824    3823    3868
CTETRA      8283       1    1509    1340    1579     658
CTETRA      8284       1    1275    2011    1509    1342
CTETRA      8285       1    3977    1382    1747    3976
CTETRA      8286       1     682     679     846     681
CTETRA      8287       1    1592    3405    3415    3408
CTETRA      8288       1    1611    2236     255    2423
CTETRA      8289       1    2777    2380    1733    2434
CTETRA      8290       1     663    3406    3402    3407
CTETRA      8291       1    2808    3398    3399    3415
CTETRA      8292       1    1638     253    1460    2388
CTETRA      8293       1     651    5219    5282    5283
CTETRA      8294       1    2088    1401    4350    4351
CTETRA      8295       1    5296    3407    3402    5862
CTETRA      8296       1    2637    4744    2477    4743
CTETRA      8297       1    1914    3397    3405    3407
CTETRA      8298       1    1083    5349    5333    5332
CTETRA      8299       1    1423    1733     223    1842
CTETRA      8300       1    2058    4899    4941    4943
CTETRA      8301       1    2952    5727    3354    5728
CTETRA      8302       1    2744    1027    3651    3649
CTETRA      8303       1    2956    2585    5336    5310
CTETRA      8304       1    2956    3500    1741    1737
CTETRA      8305       1     701     972    1733     995
CTETRA      8306       1    1279    1282    2952    3658
CTETRA      8307       1    5728    2952    2305    3354
CTETRA      8308       1     500    1940    2140    1847
CTETRA      8309       1    2956    2584    3501    1737
CTETRA      8310       1     701    2220    1733    2222
CTETRA      8311       1    1733     223    1842    2224
CTETRA      8312       1    1733     973    2222    2607
CTETRA      8313       1    1478    5728    3419    5729
CTETRA      8314       1    2101    1497     431    2327
CTETRA      8315       1    2584    1737    3511    3501
CTETRA      8316       1    1356    1930    5586    5609
CTETRA      8317       1     515    1210    2133    3386
CTETRA      8318       1    1923    5582    5581    5605
CTETRA      8319       1    2792    4740    4731    4730
CTETRA      8320       1    2102    2951    5392    2583
CTETRA      8321       1    2349    5481    2862    2960
CTETRA      8322       1    2331    3464    3657    3660
CTETRA      8323       1    2101     231    2106    1896
CTETRA      8324       1    2106    2102    1896    2583
CTETRA      8325       1    2206    1869    4373    2428
CTETRA      8326       1    4369    4295    2149    1853
CTETRA      8327       1    2206    1853    4369    4915
CTETRA      8328       1    2206    2205    4914    4371
CTETRA      8329       1    2792    4731    4734    4730
CTETRA      8330       1    2648    4685    4684    4733
CTETRA      8331       1    2584    5309    3501    5845
CTETRA      8332       1    1688    4857    4856    4863
CTETRA      8333       1    1853     613    1851    2206
CTETRA      8334       1    2206    4373    2205    4371
CTETRA      8335       1    2599    4437    4674    4479
CTETRA      8336       1    2228    4774    4768    4769
CTETRA      8337       1    1242    2677    2321    2405
CTETRA      8338       1    1500    4778    4779    4771
CTETRA      8339       1    2945    2413    2110     313
CTETRA      8340       1    2110    2112    4676    2111
CTETRA      8341       1    2945    4836    1937    2110
CTETRA      8342       1    2584    2586    5309    5393
CTETRA      8343       1    2294    3668    3728    3688
CTETRA      8344       1    1935    2945    4836    1937
CTETRA      8345       1     366    4475    2945    2413
CTETRA      8346       1    2110    4677    2413    4475
CTETRA      8347       1    2110    4836    1937    4476
CTETRA      8348       1     330     324    1405    1413
CTETRA      8349       1     935    1855     585     584
CTETRA      8350       1    1673    5246    5882    5247
CTETRA      8351       1      67      69      66     519
CTETRA      8352       1     517    4400     519    1604
CTETRA      8353       1     327     278     538     284
CTETRA      8354       1    1861      80    1050      87
CTETRA      8355       1      78    1863    2795    1729
CTETRA      8356       1    2795      78    2839    2284
CTETRA      8357       1    3973    2876    3964    2898
CTETRA      8358       1      22    3491    2286    2982
CTETRA      8359       1     749    1420    2674    1698
CTETRA      8360       1    3269    3270    5629    3961
CTETRA      8361       1    5425    3345    5424    5697
CTETRA      8362       1     897    3244    3255    3243
CTETRA      8363       1    1341     482    1169    3011
CTETRA      8364       1     905    1562    1042    2214
CTETRA      8365       1     666    5229    2762    2848
CTETRA      8366       1     105     275    2346    3639
CTETRA      8367       1    1699    2285    1762    1880
CTETRA      8368       1    2053    2011    1509    1566
CTETRA      8369       1    1562    1344     905    1042
CTETRA      8370       1    2334    3425    3423    3424
CTETRA      8371       1    3365    5760    4425    5761
CTETRA      8372       1    2447    1509    1508    2053
CTETRA      8373       1     928     544     543    1887
CTETRA      8374       1    2876     905    1562    1344
CTETRA      8375       1    2570    3171    3170    3184
CTETRA      8376       1    1228    2053    2447    1508
CTETRA      8377       1    1457    1718    2857    2825
CTETRA      8378       1    4673    5807    5808    4274
CTETRA      8379       1    1228    1566     544    2053
CTETRA      8380       1    2402    4266    4270    4273
CTETRA      8381       1    1396    5809    4705    4817
CTETRA      8382       1     544    2011    2198    2053
CTETRA      8383       1     153     160    3012    1440
CTETRA      8384       1    2382    3518    2425    3493
CTETRA      8385       1     153     152    2082    2970
CTETRA      8386       1     898    2781    2573     151
CTETRA      8387       1     891     150     156     896
CTETRA      8388       1    4817    2375    1396    5378
CTETRA      8389       1    1130    4705    4242    5808
CTETRA      8390       1    4533    4528    2175    2357
CTETRA      8391       1     153    2970    2019    3012
CTETRA      8392       1    2662    3449    4334    4297
CTETRA      8393       1    3013    4505    4521    4504
CTETRA      8394       1      57    1535    1634    1608
CTETRA      8395       1    2302     911    2173    4499
CTETRA      8396       1    2498    5426    5427    3350
CTETRA      8397       1     877      55    1636    1634
CTETRA      8398       1     548    2079    2878     998
CTETRA      8399       1    1343    2465    1168    2717
CTETRA      8400       1    1747    3995    4001    3976
CTETRA      8401       1      33    2080     548      71
CTETRA      8402       1    2341    3388    3391    3389
CTETRA      8403       1    3384    3362    1319    3390
CTETRA      8404       1    1633    1100    1099     881
CTETRA      8405       1      56    1532    2656      35
CTETRA      8406       1    2973    3429    3363    3430
CTETRA      8407       1    1855     585     586    1320
CTETRA      8408       1    2864    1055    1053    5238
CTETRA      8409       1    1529      56      58      59
CTETRA      8410       1    2091    1488    2096    1782
CTETRA      8411       1    4299    1682    4344    2088
CTETRA      8412       1    1948    3643    3644    3646
CTETRA      8413       1    2330    3809    3805    3810
CTETRA      8414       1    2200    1756     881    1099
CTETRA      8415       1    2826    4968    4989    4990
CTETRA      8416       1    2519    4676    4477    4675
CTETRA      8417       1     760    4967    4989    4968
CTETRA      8418       1      57    1100     881    1756
CTETRA      8419       1    1683    1300    2469    3014
CTETRA      8420       1    2173    4575    1983    2302
CTETRA      8421       1    2584    5309    5845    5394
CTETRA      8422       1    1493    1778    2837    2099
CTETRA      8423       1    2093    2091    1488    2096
CTETRA      8424       1    2314    3769    3779    3770
CTETRA      8425       1    1467    2091    2135    1782
CTETRA      8426       1    2686    4589    4604    4605
CTETRA      8427       1    1778    1777    2837    1779
CTETRA      8428       1    1490    1493    1778     550
CTETRA      8429       1     204    1787    1788     206
CTETRA      8430       1    1778    2096    1782    1779
CTETRA      8431       1    2093    2862    2269    2097
CTETRA      8432       1     641     649     648     209
CTETRA      8433       1    2632    3812    3809    3465
CTETRA      8434       1     938     644     939    2050
CTETRA      8435       1    2510    5115    5106    5661
CTETRA      8436       1    2526    5133    5104    5120
CTETRA      8437       1    1323     655    2109     207
CTETRA      8438       1    1875    1317    2953     585
CTETRA      8439       1     644    2811    2427    1875
CTETRA      8440       1    2510    2511    5115    3252
CTETRA      8441       1    3250    5659    5111    5660
CTETRA      8442       1    1877    2430    3196    2459
CTETRA      8443       1    1324    2973     646    2341
CTETRA      8444       1     288     289     290     294
CTETRA      8445       1    2238    1930    5611    1527
CTETRA      8446       1     597    1929     500    1847
CTETRA      8447       1    1525     314    5614     316
CTETRA      8448       1      98    2438     715    2061
CTETRA      8449       1     291    1623    1940     294
CTETRA      8450       1    3403     633    3406    3402
CTETRA      8451       1    2688    3409    3410    3408
CTETRA      8452       1    2956    2585    2586    1737
CTETRA      8453       1    2898    3964    1764     907
CTETRA      8454       1    2956    5309    5846    3501
CTETRA      8455       1    2237     870    2113     408
CTETRA      8456       1     869    1528    1526    1281
CTETRA      8457       1     721    2812    2666     861
CTETRA      8458       1    2812     719    4177     861
CTETRA      8459       1    2951    5844    5394    3512
CTETRA      8460       1    1525     314    2044    5613
CTETRA      8461       1     948    2101    1498    1497
CTETRA      8462       1     430    3533    3536    3538
CTETRA      8463       1     431    3530    1497    3531
CTETRA      8464       1     430    1495    3536    3533
CTETRA      8465       1    1238    1241     857     359
CTETRA      8466       1     355    1703    1702    2523
CTETRA      8467       1    2587    2938    5402    1897
CTETRA      8468       1     979    1254    2757    2424
CTETRA      8469       1     355    2784    1703    2523
CTETRA      8470       1    1815     357    2404    2190
CTETRA      8471       1    2812     719    4070    4177
CTETRA      8472       1    1471    3735    3728    3727
CTETRA      8473       1    2404    2761    1755    1815
CTETRA      8474       1     828    2020    1308    1307
CTETRA      8475       1    3007    2390    3732    2391
CTETRA      8476       1     359    1241    1239    1238
CTETRA      8477       1    1109      44      51     357
CTETRA      8478       1    1108     692    2419     175
CTETRA      8479       1     830    1815    2761    2022
CTETRA      8480       1     364    3803    3804    3812
CTETRA      8481       1    1095    3801    3901    3902
CTETRA      8482       1    2867    4159    2666    4157
CTETRA      8483       1      85    3751    3794    3795
CTETRA      8484       1     828     360    1815    2022
CTETRA      8485       1    2176    1246     576    4495
CTETRA      8486       1     192    2211     189    1264
CTETRA      8487       1     194    2562     195    2162
CTETRA      8488       1    2412    2581    4196    4187
CTETRA      8489       1    2926    2086    2162    2562
CTETRA      8490       1     853    3475    3563    3558
CTETRA      8491       1    1397    2089    2086    2085
CTETRA      8492       1    2314    3780    2333    3770
CTETRA      8493       1     213    4488    4593    4594
CTETRA      8494       1    2527    4644    4626    4625
CTETRA      8495       1     397     903     166     402
CTETRA      8496       1     370    2574    2686    2997
CTETRA      8497       1     399     408     403     398
CTETRA      8498       1    3015    5118    5124    5125
CTETRA      8499       1    2832    5118    5125    5117
CTETRA      8500       1    2412    2565    2581    2846
CTETRA      8501       1     404     405    1479     406
CTETRA      8502       1    1388    5839    5299    5303
CTETRA      8503       1     399     402     397     400
CTETRA      8504       1     903     901    1001    1061
CTETRA      8505       1    2532    5303    5299    5298
CTETRA      8506       1     869    2113    2008     990
CTETRA      8507       1    2462    3463    3661    3462
CTETRA      8508       1    2760     403     408     398
CTETRA      8509       1    2024     403     941     942
CTETRA      8510       1     979    1252    2757    1254
CTETRA      8511       1    1891    4990    4989    5041
CTETRA      8512       1     972    1427     973    1426
CTETRA      8513       1    2331    3465    3657    3464
CTETRA      8514       1    2238    5722    5723    5610
CTETRA      8515       1    2429     976    2871     978
CTETRA      8516       1    2921    3463    3464    3660
CTETRA      8517       1    2395    5349    5348    5356
CTETRA      8518       1     473    4647    4646    4666
CTETRA      8519       1    1252    1255    2429    1253
CTETRA      8520       1    2504    4596    4595    4612
CTETRA      8521       1    2221    4648    4630    4629
CTETRA      8522       1    2403    4695    2190    4663
CTETRA      8523       1     996    2600    2429    1230
CTETRA      8524       1     524     923     526     525
CTETRA      8525       1    4725    5262    5890    5286
CTETRA      8526       1    3000    4082    4083    3834
CTETRA      8527       1    3362    2953    1320    5709
CTETRA      8528       1    1973    5833    5308    5286
CTETRA      8529       1     525     526     527    1276
CTETRA      8530       1    2051     140    2481    2317
CTETRA      8531       1    2482    4422    4429    4430
CTETRA      8532       1     525    2950    1809     524
CTETRA      8533       1    1939    2994    4959    4958
CTETRA      8534       1    2204    4850    4849    4846
CTETRA      8535       1     527     101    1809     525
CTETRA      8536       1    3016    2667    4159    4158
CTETRA      8537       1    2230    4354    4340    4353
CTETRA      8538       1    2576    4924    4921    4923
CTETRA      8539       1     871    2115     873    1512
CTETRA      8540       1     100    2277     525     101
CTETRA      8541       1     923    2277     322    1276
CTETRA      8542       1    2621    2867    4069    4082
CTETRA      8543       1     525    2950     923    1805
CTETRA      8544       1    1886     191    1399    1682
CTETRA      8545       1     192    2211    1849    1399
CTETRA      8546       1    2959    3489    3488    3555
CTETRA      8547       1    1436     193     199    1849
CTETRA      8548       1    2765    3499    3509    3510
CTETRA      8549       1    2412    2846    4598    4493
CTETRA      8550       1    3010    4699    4667    4698
CTETRA      8551       1    3551    2822    2674    3550
CTETRA      8552       1    2299    3569    3570    3577
CTETRA      8553       1    2094     199     899     900
CTETRA      8554       1     600     610    2741    1266
CTETRA      8555       1    2794    3568    3597    3569
CTETRA      8556       1    2299    3569    3577    3588
CTETRA      8557       1    2839    3623    3620    3619
CTETRA      8558       1     690     831    1109    1112
CTETRA      8559       1    2321    2639    1242    1308
CTETRA      8560       1    1309    1308    2321    1241
CTETRA      8561       1    1703    2022    1966    2784
CTETRA      8562       1    1676    4775    4757    4780
CTETRA      8563       1    1836     828     360    1307
CTETRA      8564       1    1836    1078    1077    2763
CTETRA      8565       1    2844    5253    5260    5261
CTETRA      8566       1    2844    5254    5253    5261
CTETRA      8567       1    1703    1966    1962    2523
CTETRA      8568       1    2522    1700    2067    1870
CTETRA      8569       1    4765    4749    1835    4706
CTETRA      8570       1    1700    1962    2522    2523
CTETRA      8571       1     828     830     352    2022
CTETRA      8572       1    2080     998     997    2449
CTETRA      8573       1    1698    1697     360    1838
CTETRA      8574       1    1834    1370    2771    2417
CTETRA      8575       1    2119    4664    4665    4645
CTETRA      8576       1    2286    3559    3478    3479
CTETRA      8577       1    2412    5803    4599    4197
CTETRA      8578       1    1350    2527    4609    2344
CTETRA      8579       1    1315    1870     470    1321
CTETRA      8580       1    2559    5404    5408    5409
CTETRA      8581       1    2190    4696    4664    4695
CTETRA      8582       1     259    2862    2960    2139
CTETRA      8583       1    2822    3555    3556    3550
CTETRA      8584       1     598    2093    2097    2862
CTETRA      8585       1    2679    4638    4658    4639
CTETRA      8586       1    1121    3795    3787    3786
CTETRA      8587       1    2093    1488    2099    2096
CTETRA      8588       1    1126    3777    3787    3778
CTETRA      8589       1    2845    3017    4988    4887
CTETRA      8590       1     849    5019    5039    5040
CTETRA      8591       1    1269    2185    1288     494
CTETRA      8592       1    2862    2349    2960    2269
CTETRA      8593       1    2093    2098    2099    2269
CTETRA      8594       1    2443    4221    2548    4223
CTETRA      8595       1    2741    4943    4936    4900
CTETRA      8596       1    1848    2100    1089    2862
CTETRA      8597       1    2200    2878     881    2079
CTETRA      8598       1     161     931    2447    1508
CTETRA      8599       1    3798    2760     484    3437
CTETRA      8600       1    2071    1438    2072    4318
CTETRA      8601       1    2412    2565    4198    2581
CTETRA      8602       1    1793    1797    5712    5711
CTETRA      8603       1    2412    4493    4599    5803
CTETRA      8604       1    5831    4303    5832    5051
CTETRA      8605       1     783    5142    5144    5141
CTETRA      8606       1    2447    1792     931    1706
CTETRA      8607       1    1558     161    2447    1578
CTETRA      8608       1     161    2447    1578    1508
CTETRA      8609       1    3208    5668    5667    5171
CTETRA      8610       1    1575    1578    1205    1561
CTETRA      8611       1    2544    5193    5194    5190
CTETRA      8612       1    1578    1561    1558    1205
CTETRA      8613       1    2898    1228    2053    2447
CTETRA      8614       1    1500    4692    4771    4779
CTETRA      8615       1    2420    4693    4661    4692
CTETRA      8616       1    3018    3543    3582    3544
CTETRA      8617       1    2731    3005    4507    2789
CTETRA      8618       1     852    3474    3475    3558
CTETRA      8619       1    2189    4662    4663    4643
CTETRA      8620       1    2956    2585    5310    2586
CTETRA      8621       1    2454    2449    3730    2878
CTETRA      8622       1    2639    2677    3548    2321
CTETRA      8623       1    2893    1701    2988     502
CTETRA      8624       1    2817    2933    2818    2738
CTETRA      8625       1    1701    2967     965    2987
CTETRA      8626       1    2450    5332    5348    5349
CTETRA      8627       1    2817    2933    2585    5335
CTETRA      8628       1    2956    2585    2933    5336
CTETRA      8629       1     452    2354     501    2989
CTETRA      8630       1     138    1200     145     148
CTETRA      8631       1     452    3019     139    2354
CTETRA      8632       1    2877    4213    4228    4215
CTETRA      8633       1     109    3020    2735    3021
CTETRA      8634       1     452    2987    1197    3019
CTETRA      8635       1    1016    1039    1017    1015
CTETRA      8636       1    2458    3773    3772    3782
CTETRA      8637       1    1042    1591    1015    1014
CTETRA      8638       1    2127    5006    5007    4874
CTETRA      8639       1    1016    1040    2134    2823
CTETRA      8640       1    2591    1591    1015    1042
CTETRA      8641       1    1014    1029     488    1590
CTETRA      8642       1     479     487     486     504
CTETRA      8643       1     642    4420    4427    4428
CTETRA      8644       1    1015    2591    1746    1591
CTETRA      8645       1    1945    2479    2334    2810
CTETRA      8646       1    2656    1970    2443    2548
CTETRA      8647       1      84    1471     969    2400
CTETRA      8648       1      84    1631    2400     969
CTETRA      8649       1    2410    3583    3578    3582
CTETRA      8650       1    2733    3022    1470     969
CTETRA      8651       1    1441    5233    5208    5222
CTETRA      8652       1     967     575     965    1196
CTETRA      8653       1    3023    3552    3542    3543
CTETRA      8654       1    1632    1607    2733    1631
CTETRA      8655       1     563    5405    5409    5398
CTETRA      8656       1    1083    5349    5350    5333
CTETRA      8657       1     964     575     577     578
CTETRA      8658       1    1063    4003    4005    4002
CTETRA      8659       1     971    1472    2748     710
CTETRA      8660       1     711     707     578    1142
CTETRA      8661       1    2171    3024     575    2172
CTETRA      8662       1    3225    2720    2879    3226
CTETRA      8663       1     964     711     710     706
CTETRA      8664       1     967    1128      84    2009
CTETRA      8665       1    2306    3163    3147    3148
CTETRA      8666       1    1629    1630    1631    1632
CTETRA      8667       1     946     945    2233    2051
CTETRA      8668       1    2956    2933    2585    1741
CTETRA      8669       1    1159    4164    4169    4073
CTETRA      8670       1    1605    1915    2578    1912
CTETRA      8671       1    2323    4641    4660    4661
CTETRA      8672       1    2421    3545    2929    2619
CTETRA      8673       1     328     325    1915     324
CTETRA      8674       1    2443      36    4221    4222
CTETRA      8675       1    2292    5135    5129    5128
CTETRA      8676       1    1911    2050     946     140
CTETRA      8677       1     227    3204    3228    3232
CTETRA      8678       1     939     946    2050    2051
CTETRA      8679       1    2979    2895    2894    4459
CTETRA      8680       1     952     947    1304     951
CTETRA      8681       1     101    2373    2712    2626
CTETRA      8682       1    1387    3165    3161    3160
CTETRA      8683       1     926    4127    4136    4137
CTETRA      8684       1    1969     997    3690    2449
CTETRA      8685       1     952    2477     951    1304
CTETRA      8686       1    2120    4627    4626    4645
CTETRA      8687       1    2013    3477    3478    3560
CTETRA      8688       1     852     854    2984     853
CTETRA      8689       1    2016    3477    3771    3772
CTETRA      8690       1     785     788     784     782
CTETRA      8691       1    2242     788     797     784
CTETRA      8692       1    2272    3773    3782    3783
CTETRA      8693       1     784     781    2240     620
CTETRA      8694       1    2785    4236    4235    4279
CTETRA      8695       1     432    5363    5362    5395
CTETRA      8696       1    2785    4279    1229    1230
CTETRA      8697       1    1299    1301    1338    1339
CTETRA      8698       1     427    1207     429    1008
CTETRA      8699       1     421     265     250     425
CTETRA      8700       1     251     262     947     951
CTETRA      8701       1     788     796     951    2242
CTETRA      8702       1     257    1008     427     250
CTETRA      8703       1    2094    3300     582    2103
CTETRA      8704       1    1849    2949    2095    2491
CTETRA      8705       1     900    1850    1059    2471
CTETRA      8706       1    1849    2211    1850    2095
CTETRA      8707       1    2094    2105    1438    5679
CTETRA      8708       1    1583    2825    1719    1718
CTETRA      8709       1     852    3475    3474    3769
CTETRA      8710       1    2337    3778    3769    3768
CTETRA      8711       1     852    3474    2339    3769
CTETRA      8712       1    1727    3616    3606    3617
CTETRA      8713       1    4696    4697    4808    2523
CTETRA      8714       1    5544    1088    5568    1090
CTETRA      8715       1     908     909    5076    5079
CTETRA      8716       1     478    5079    5075    5074
CTETRA      8717       1    1059    2923    2849    1060
CTETRA      8718       1     315     316    5592    5591
CTETRA      8719       1    1090     904    2043    5565
CTETRA      8720       1    3800    3801    3901     791
CTETRA      8721       1    5718    2126    2026    2613
CTETRA      8722       1    2019    5060    5063    5059
CTETRA      8723       1     151     898    2781    2035
CTETRA      8724       1    1090     904    5566    5543
CTETRA      8725       1    1929     315     314     316
CTETRA      8726       1    5612    5724    1526    1525
CTETRA      8727       1    2311    4389    2597    2041
CTETRA      8728       1    3433    5628    3270    3961
CTETRA      8729       1    2654    2838    3963    3962
CTETRA      8730       1    1306    5272    5887    4718
CTETRA      8731       1    4384    2312    4389    2311
CTETRA      8732       1    1970    2548    1529    4232
CTETRA      8733       1    2311    3374    2597    4389
CTETRA      8734       1    2311    2304    3380    3381
CTETRA      8735       1    2312    2597    2041    2311
CTETRA      8736       1    2311    3372    2597    3374
CTETRA      8737       1    1305    4708    1408    4717
CTETRA      8738       1     756    1789    1139     238
CTETRA      8739       1     758     763     757     764
CTETRA      8740       1    2476    4722    5262    5889
CTETRA      8741       1     240     246     449     245
CTETRA      8742       1     852     853    3558    3475
CTETRA      8743       1    1978    3787    3777    3785
CTETRA      8744       1    2400    3735    3686    3687
CTETRA      8745       1     240     757    1249    1164
CTETRA      8746       1     236     233    1172     248
CTETRA      8747       1    2582    4182    4204    4181
CTETRA      8748       1    2705     449    2706     245
CTETRA      8749       1    2127     757    3025    1249
CTETRA      8750       1    2548    2547    4220    4221
CTETRA      8751       1    1130    5808    4673    4705
CTETRA      8752       1     254     218    1460     253
CTETRA      8753       1     705    1247    1249     450
CTETRA      8754       1    1249    1166    1248    1247
CTETRA      8755       1    1248    1695    2167    1249
CTETRA      8756       1    1598     449    2707    1249
CTETRA      8757       1    1249    1245    1248    1598
CTETRA      8758       1     241     243    2899    1140
CTETRA      8759       1    3026    4162    5734    4161
CTETRA      8760       1    3897    4162    5735    5734
CTETRA      8761       1    3027     702    1233     238
CTETRA      8762       1     242     241     243    2899
CTETRA      8763       1     705     707    1247     706
CTETRA      8764       1     445     703    1138     705
CTETRA      8765       1    2369    2359    4048    3988
CTETRA      8766       1    3027    3028     233    1174
CTETRA      8767       1    3016    2667    2711    2934
CTETRA      8768       1    1515    4161    3924    5733
CTETRA      8769       1     236    1172     233    1176
CTETRA      8770       1    1532    1529    1970    2548
CTETRA      8771       1    1722    1155    1971     746
CTETRA      8772       1    1156     746    1201    1155
CTETRA      8773       1    1944    1943    2629    1161
CTETRA      8774       1    1968     588    1211     590
CTETRA      8775       1    1944    2631    2287    1160
CTETRA      8776       1     590    2631    2287    1944
CTETRA      8777       1    1213    2900     823    2920
CTETRA      8778       1    2951    2584    3512    5394
CTETRA      8779       1    1735    2586    2585    1737
CTETRA      8780       1     431    5391    5396    5395
CTETRA      8781       1    2640     823    2920    2444
CTETRA      8782       1    1213     511    2444     823
CTETRA      8783       1    2449     998    3730    2878
CTETRA      8784       1     430    3531    5842    5396
CTETRA      8785       1    2454    3730    2449    3724
CTETRA      8786       1    1647    3695    3706    3694
CTETRA      8787       1    2090     511     823    1293
CTETRA      8788       1    2640     822     823    1293
CTETRA      8789       1    1589    1587    1429    1019
CTETRA      8790       1    2687    3909    3968    3910
CTETRA      8791       1     590    3471    3470    3764
CTETRA      8792       1      77    1859     507     511
CTETRA      8793       1     118     618     823     123
CTETRA      8794       1    2295    3668    3688    3667
CTETRA      8795       1    2297    3847    3846    3848
CTETRA      8796       1     618     823     123    1004
CTETRA      8797       1    3029    4570    4568    4569
CTETRA      8798       1     823    1004    2900     123
CTETRA      8799       1    3196    2430    3194    3193
CTETRA      8800       1     823    1293     511    2640
CTETRA      8801       1     233     234     238    1174
CTETRA      8802       1    1501    1500    4779    4785
CTETRA      8803       1    2125    1327    2180    2472
CTETRA      8804       1    2984     852    3558    3474
CTETRA      8805       1    3545    2929    2410    2321
CTETRA      8806       1     694    1192    2228     864
CTETRA      8807       1     235    1185    1402    1459
CTETRA      8808       1    2225    3030    1175    1174
CTETRA      8809       1    2339    3474    3473    3768
CTETRA      8810       1    2931    3547    3614    3473
CTETRA      8811       1    3016    3000    4068    2867
CTETRA      8812       1    1024     380    2225    2664
CTETRA      8813       1    2225     569    2665     580
CTETRA      8814       1     235    2225     248     569
CTETRA      8815       1     248     569    2225     580
CTETRA      8816       1    3016    2867    4159    2667
CTETRA      8817       1    2758      86    3750    2759
CTETRA      8818       1     615    5472    5496    5473
CTETRA      8819       1    3016    3877    5736    3832
CTETRA      8820       1    2962    2352    4067    4081
CTETRA      8821       1     236    1185    1187     446
CTETRA      8822       1     729    3031     726     723
CTETRA      8823       1     732    3032    1956    2692
CTETRA      8824       1    5156    1418    1417    5157
CTETRA      8825       1    2687    3910    3968    3976
CTETRA      8826       1    2066    4667    4666    4698
CTETRA      8827       1     732    1331    3032    2399
CTETRA      8828       1    2119    4696    4665    4664
CTETRA      8829       1    3016    2867    4068    4159
CTETRA      8830       1    2984    3547    2931    3474
CTETRA      8831       1     730    2399     732    2689
CTETRA      8832       1     730    2687    2689    1289
CTETRA      8833       1    2965    4623    4642    4624
CTETRA      8834       1    2347    4777    4782    4783
CTETRA      8835       1     730    2689     732     723
CTETRA      8836       1     766     307    2910     308
CTETRA      8837       1    1009    1167    2357     385
CTETRA      8838       1    1165     549    1643     305
CTETRA      8839       1    2532    3422    3397    5864
CTETRA      8840       1    2532    2500    1947    5298
CTETRA      8841       1     385    1167     304    1009
CTETRA      8842       1    2958    3398    3415    3405
CTETRA      8843       1     758     757     302     766
CTETRA      8844       1    1783    3161    3113    3112
CTETRA      8845       1    2950    5198    2212    5204
CTETRA      8846       1    2544    5190    5191    5193
CTETRA      8847       1    5676    3154    1813    5205
CTETRA      8848       1    3033    1167    2167     757
CTETRA      8849       1    3155    5205    3154    5675
CTETRA      8850       1     757    1249    1166    2167
CTETRA      8851       1     363    3812    3811    3803
CTETRA      8852       1    2210    4684    4469    4683
CTETRA      8853       1    2921    3464    3463    3811
CTETRA      8854       1    2261    3198    3229    3230
CTETRA      8855       1    1167     385    3034    2357
CTETRA      8856       1    4024    4025    1057    4017
CTETRA      8857       1    1009    1143    2912    2175
CTETRA      8858       1    1582    4040    4045    4041
CTETRA      8859       1    1167    3034     308    2910
CTETRA      8860       1     501    2892     369    2166
CTETRA      8861       1     737     736    3035    1918
CTETRA      8862       1     462     457    1976    1978
CTETRA      8863       1     458     457     459    2179
CTETRA      8864       1    1020    1589    2821    2377
CTETRA      8865       1    1127    1120     459    1129
CTETRA      8866       1     858    2337    2178    2179
CTETRA      8867       1    3016    3877    4158    5736
CTETRA      8868       1    2381    4785    4795    1548
CTETRA      8869       1     459    1126    2179    1978
CTETRA      8870       1    1390    2298    1725    3583
CTETRA      8871       1    2936    2816    5210    5317
CTETRA      8872       1    2077    5209    5210    5252
CTETRA      8873       1     794     797     798     796
CTETRA      8874       1     136     460     149     452
CTETRA      8875       1     455     457    1919    1917
CTETRA      8876       1    3006    3036    2352    3008
CTETRA      8877       1    2530    4081    4080    4106
CTETRA      8878       1    1642    1643    1645    1139
CTETRA      8879       1    1433    5158    5159    5156
CTETRA      8880       1    1643    1141    2497     549
CTETRA      8881       1    2497    1643    1649    1650
CTETRA      8882       1      73    1070     297    2265
CTETRA      8883       1    1167     385     308    3034
CTETRA      8884       1    1070     298     300     304
CTETRA      8885       1    1820    3191    3240    3192
CTETRA      8886       1    2510    5105    5106    5115
CTETRA      8887       1    3433    5627    3259    5628
CTETRA      8888       1    1165    1643    1645     305
CTETRA      8889       1      62    1009    1165    1142
CTETRA      8890       1    1991    3270    3433    3259
CTETRA      8891       1      62     546    1141     549
CTETRA      8892       1     941     400    2932     942
CTETRA      8893       1    1137    1642     712    1646
CTETRA      8894       1    2087    1397    2088    1401
CTETRA      8895       1    2037    3286    3262    3261
CTETRA      8896       1    1722    1155    3037    3038
CTETRA      8897       1    1722     738    3038    2676
CTETRA      8898       1    2904    2905    3305    3283
CTETRA      8899       1     114     115     112    1160
CTETRA      8900       1     807     806    1154    1198
CTETRA      8901       1    1257     863    4777    2347
CTETRA      8902       1     113    1270    1271     111
CTETRA      8903       1    2765    3500    3499    3510
CTETRA      8904       1    2586    5309    5393    5310
CTETRA      8905       1     746    1156     114    1155
CTETRA      8906       1    1347    1234    1350     465
CTETRA      8907       1     465    1347    1234    1933
CTETRA      8908       1    1437    4314    4315    4316
CTETRA      8909       1    1185    3039     446     247
CTETRA      8910       1    1185     247    3040    3039
CTETRA      8911       1    2818    3504    3503    5848
CTETRA      8912       1     664    3402    3404    5861
CTETRA      8913       1    1185    1187    3039    1556
CTETRA      8914       1    1402    1185    2280    1459
CTETRA      8915       1    1185    1187    1556    1431
CTETRA      8916       1    1186    1185    1459    1431
CTETRA      8917       1    1635    1355    2376    3041
CTETRA      8918       1     663    3407    3405    3406
CTETRA      8919       1    2818    2819    5344    5337
CTETRA      8920       1    1169    5119    5122    5124
CTETRA      8921       1    2756    5034    5126    5127
CTETRA      8922       1    2198    3971    3975    3974
CTETRA      8923       1    1349    1347     347     349
CTETRA      8924       1    1354    1351     349     344
CTETRA      8925       1    1421    1840     343     752
CTETRA      8926       1    1608    1635    1732    1351
CTETRA      8927       1    1932     348    2376    1352
CTETRA      8928       1    1435     376      91    1403
CTETRA      8929       1     845    5023    5002    5022
CTETRA      8930       1     107    1387    1805    1385
CTETRA      8931       1    1580    2854    2130    4036
CTETRA      8932       1     542    1435    2713     409
CTETRA      8933       1     187    3106    3105    3207
CTETRA      8934       1    2841    3183    3179    3178
CTETRA      8935       1    1057    1065    1045    4030
CTETRA      8936       1    2532    1947    1388    5303
CTETRA      8937       1     542     102    2712    2422
CTETRA      8938       1    2479    4447    3425    5839
CTETRA      8939       1    1491    3333    3340    3334
CTETRA      8940       1    3432    2335    1473    1145
CTETRA      8941       1    3042     140    2317    2481
CTETRA      8942       1     542     102    2714    2712
CTETRA      8943       1    2875    4139    5786    4124
CTETRA      8944       1     379     541    1434     371
CTETRA      8945       1    2875    4139    4142    5020
CTETRA      8946       1     612    2493    1521    2154
CTETRA      8947       1     600     603     865    1302
CTETRA      8948       1    4140    3043    1769    4137
CTETRA      8949       1     865     600    1303     601
CTETRA      8950       1     604     194    2086     191
CTETRA      8951       1     922    4155    4128    4175
CTETRA      8952       1    2449     998    3690    3725
CTETRA      8953       1    2389    4118    2798    2263
CTETRA      8954       1    2933    5336    5847    3507
CTETRA      8955       1    2385    2386    2670    2669
CTETRA      8956       1    1842    4670    4669    4701
CTETRA      8957       1     977     976     996     699
CTETRA      8958       1    2267     700    2594    1759
CTETRA      8959       1     699     975     976     980
CTETRA      8960       1     977     976     974    2957
CTETRA      8961       1    3756    5752    4281    4282
CTETRA      8962       1    1499    3524    3532    3534
CTETRA      8963       1     975     980    1830     974
CTETRA      8964       1    2355     811    2699    3002
CTETRA      8965       1    1943    3001     142    1951
CTETRA      8966       1     812     813     850     810
CTETRA      8967       1    1627    5373    5374    5375
CTETRA      8968       1    2387    4835    4815    4833
CTETRA      8969       1    1200    1201     138    1972
CTETRA      8970       1    2388    4814    4831    4833
CTETRA      8971       1    3044    5360    5359    5406
CTETRA      8972       1    5411    5410    1477    5408
CTETRA      8973       1    2107    3529    3495    3516
CTETRA      8974       1    1577    5362    5368    5361
CTETRA      8975       1     561    2007     593    1730
CTETRA      8976       1    2587    1897    5401    1900
CTETRA      8977       1    2007     561     593     592
CTETRA      8978       1    1739    2933    2738    1741
CTETRA      8979       1    1462    4814    4813    4831
CTETRA      8980       1    4828    1866    4829    4812
CTETRA      8981       1    1868    4701    1842    4669
CTETRA      8982       1    2544    1805    1808    1814
CTETRA      8983       1     558      38     733      41
CTETRA      8984       1    2001     593    1730    1878
CTETRA      8985       1    1392     182    1731      32
CTETRA      8986       1    3026    1516    3923    2681
CTETRA      8987       1    4784    4785    4795    2381
CTETRA      8988       1    1327    4589    4588    4604
CTETRA      8989       1    1996    2002    1731    2001
CTETRA      8990       1    2984    3546    3547    3558
CTETRA      8991       1     593     592     594    1878
CTETRA      8992       1    1122    3752    3795    3786
CTETRA      8993       1    2673    3688    3753    3667
CTETRA      8994       1    1666    1196    2891    2988
CTETRA      8995       1     575    1732    2172    3029
CTETRA      8996       1    3108    4057    5647    5648
CTETRA      8997       1    2630    2798    4105    4117
CTETRA      8998       1    2948    4052    3139    4054
CTETRA      8999       1    2645     933    1513    1492
CTETRA      9000       1     968    1609     577    1732
CTETRA      9001       1     320    1118    1260     843
CTETRA      9002       1    2944    3150    5192    5673
CTETRA      9003       1    3156    5674    5673    5193
CTETRA      9004       1    1608     342    1351    1667
CTETRA      9005       1     968    1608    1609    1732
CTETRA      9006       1     349    1352    1351    1355
CTETRA      9007       1    1353    1355     349    1351
CTETRA      9008       1     664    3402    3403    3404
CTETRA      9009       1    2166    1354    1666    2891
CTETRA      9010       1    1845     622      19    1844
CTETRA      9011       1    1715    5307    5287    5308
CTETRA      9012       1    5293    3402    5861    5862
CTETRA      9013       1    1998    2305    2744     621
CTETRA      9014       1     632    2416     275    3633
CTETRA      9015       1     577    1732     918    2171
CTETRA      9016       1    1666    1732    3029    1353
CTETRA      9017       1    1934    3404     664     722
CTETRA      9018       1    5296    5863    3407    5862
CTETRA      9019       1    2708    2961    2709    3697
CTETRA      9020       1    1934    5277    5269    5860
CTETRA      9021       1    1932    1635    1352    2376
CTETRA      9022       1    1120    1128     462     459
CTETRA      9023       1     966     803     706    1767
CTETRA      9024       1     537     536    3045     908
CTETRA      9025       1     297    2264     309    2798
CTETRA      9026       1    2969    2082    5070     477
CTETRA      9027       1    1892    4990    5041    5042
CTETRA      9028       1    2652    5089    5088    5092
CTETRA      9029       1    2038    1692     829    1963
CTETRA      9030       1     829    1691    2039    2589
CTETRA      9031       1    1963    2038    2039     829
CTETRA      9032       1     364    3904    3804    3803
CTETRA      9033       1     931    1507    1921    1508
CTETRA      9034       1    1642    1233    1645    1644
CTETRA      9035       1    1081    2560    2559    1885
CTETRA      9036       1    2786    3791    3790    3796
CTETRA      9037       1    2339    3761    3768    3473
CTETRA      9038       1    1648    2715    1137    2276
CTETRA      9039       1    2619    3573    3547    3546
CTETRA      9040       1    1350    4592    2344    4609
CTETRA      9041       1     702    1137    2899    2276
CTETRA      9042       1     703    1138     707    1139
CTETRA      9043       1     445     703     708     704
CTETRA      9044       1     712    2492     710    2494
CTETRA      9045       1    3046    3768    3777    3778
CTETRA      9046       1     712     709    1137    2494
CTETRA      9047       1    2742    4623    4641    4642
CTETRA      9048       1    2817    5337    2818    5343
CTETRA      9049       1    1344    2591     905    1042
CTETRA      9050       1    1042    1569    1344    2591
CTETRA      9051       1    2817    2819    2818    5337
CTETRA      9052       1    1569    1344    2927    2886
CTETRA      9053       1    1871    4699    4810    4811
CTETRA      9054       1    1014    1590     488    1591
CTETRA      9055       1     479     489     497     480
CTETRA      9056       1     479     482     504     489
CTETRA      9057       1     926    4127    4128    4136
CTETRA      9058       1     480    1569     481    1344
CTETRA      9059       1    2630    2798    2389    4105
CTETRA      9060       1    1510    1492    3120    2645
CTETRA      9061       1    1584    1574     496    1819
CTETRA      9062       1     479     481     504     482
CTETRA      9063       1    2817    2818    2933    5343
CTETRA      9064       1    2711    4158    4162    4163
CTETRA      9065       1    2948    4052    3141    3139
CTETRA      9066       1    2621    4076    4069    4070
CTETRA      9067       1     480    1569    1344    1042
CTETRA      9068       1    2711    2934    3896    3877
CTETRA      9069       1    2821    3184    3170    3180
CTETRA      9070       1    2529    3047    2961    2530
CTETRA      9071       1    1653    5169    5164    5172
CTETRA      9072       1      60     553     547     546
CTETRA      9073       1      72    2265    2353    2530
CTETRA      9074       1     553     547    2767    2531
CTETRA      9075       1    1053    5238    5218    5237
CTETRA      9076       1     104     105    3634     275
CTETRA      9077       1     632    3360    3359    3630
CTETRA      9078       1     722    3403    3360    3404
CTETRA      9079       1    1673    4757    1672    4764
CTETRA      9080       1    2529    2531    2767    3047
CTETRA      9081       1    2529    2947    2709    2769
CTETRA      9082       1     102    3021    2378    2373
CTETRA      9083       1     526    5196    5197    5021
CTETRA      9084       1    2529    2947    2769    2262
CTETRA      9085       1    1809    5199    5190    5200
CTETRA      9086       1    1519    1517    4337    2320
CTETRA      9087       1    3026    4161    4160    4162
CTETRA      9088       1     873     874    2182    1518
CTETRA      9089       1    2303    1517     873    1518
CTETRA      9090       1    2681     920     921    1450
CTETRA      9091       1    3016    4068    5736    4158
CTETRA      9092       1     871     872     874     528
CTETRA      9093       1    1391    3160    3111    3159
CTETRA      9094       1     873    2115    2312    1512
CTETRA      9095       1    1512     872     873     871
CTETRA      9096       1    1517    4338    2303    4291
CTETRA      9097       1    1396    4242    4243    4244
CTETRA      9098       1    4337    1517    4338    2320
CTETRA      9099       1    1062    4653    4673    5807
CTETRA      9100       1    1517    2303    4338    2320
CTETRA      9101       1    1517    2303    4374    4291
CTETRA      9102       1    2533    4264    4263    4261
CTETRA      9103       1    1738    1737    2765    2107
CTETRA      9104       1    1519    2428    4293    4380
CTETRA      9105       1    1650    2496    1617    1472
CTETRA      9106       1    1882    5273    5888    4720
CTETRA      9107       1     260    5265    5266    5278
CTETRA      9108       1    2476    5273    5889    5262
CTETRA      9109       1    1767     710    2748     709
CTETRA      9110       1    1673    4756    4764    5882
CTETRA      9111       1    1673    1523    1672    1674
CTETRA      9112       1     969    3022    1470    1472
CTETRA      9113       1    1771    3255    3235    5632
CTETRA      9114       1     968    1608    1351    1667
CTETRA      9115       1     575    2988     965    1196
CTETRA      9116       1    2840    3939    3434    3433
CTETRA      9117       1    1775     483     523     485
CTETRA      9118       1     485    3926    3898    3925
CTETRA      9119       1     892    2000    1567    2191
CTETRA      9120       1    2838    3961    1991    3270
CTETRA      9121       1    1474    1949    1475    1478
CTETRA      9122       1    1824     639    2347    2590
CTETRA      9123       1    3010    4668    4648    4667
CTETRA      9124       1    2273    3774    3479    3773
CTETRA      9125       1    2474    1982     882     961
CTETRA      9126       1    2915     961    1982    2474
CTETRA      9127       1    1477    5408    2561    5407
CTETRA      9128       1     232    1498    1464    1424
CTETRA      9129       1    1982    1996    2814    2202
CTETRA      9130       1    3020    2735    3021    5182
CTETRA      9131       1     882     282     961    1982
CTETRA      9132       1    3361    5859    5277    5860
CTETRA      9133       1    1982    1996    2202    3048
CTETRA      9134       1    2530    2389    4106    4080
CTETRA      9135       1    1982    1996    3048     365
CTETRA      9136       1    2290    5116    5129    5117
CTETRA      9137       1    2494    3842    3670    3844
CTETRA      9138       1    2354     452     501     139
CTETRA      9139       1    2295    3848    3668    3667
CTETRA      9140       1    1728    3598    3597    3624
CTETRA      9141       1    1195    1128    1129     459
CTETRA      9142       1    2262    2739    2769    2768
CTETRA      9143       1     666    5230    5221    5229
CTETRA      9144       1     849    4988    5019    5040
CTETRA      9145       1    3020    2944    5192    3021
CTETRA      9146       1    1280    3661    3660    3659
CTETRA      9147       1     587    4683    4682    4735
CTETRA      9148       1     746     463     138     454
CTETRA      9149       1    1189    4771    4770    4778
CTETRA      9150       1    1917     778     588     591
CTETRA      9151       1    1448    5354    5346    5353
CTETRA      9152       1    2929    3578    3580    3545
CTETRA      9153       1    3580    3546    2619    3545
CTETRA      9154       1    1622    1356    1925    1786
CTETRA      9155       1    2197    2196    5532    5555
CTETRA      9156       1    2476    5273    1882    4720
CTETRA      9157       1    2232    5553    5577    5554
CTETRA      9158       1    5531    5554    5530    2243
CTETRA      9159       1    2099    2197    2618    2098
CTETRA      9160       1    2526    2717    5120    5103
CTETRA      9161       1    2243    5554    5530    5553
CTETRA      9162       1    2526    5120    2507    5133
CTETRA      9163       1    1375    3324    2745    1752
CTETRA      9164       1    2645     930    1391     933
CTETRA      9165       1    1233    3049    3826    3825
CTETRA      9166       1    2854    3983    4046    3984
CTETRA      9167       1    5188    5183    2554    5024
CTETRA      9168       1    2555    5003    5023    5024
CTETRA      9169       1    1131    4273    4274    4241
CTETRA      9170       1    1375    2745    3327    5416
CTETRA      9171       1    1843    4703    4672    4671
CTETRA      9172       1    2349    2960    2392    5482
CTETRA      9173       1    1800    4289    4239    4238
CTETRA      9174       1    3044    5406    5400    5360
CTETRA      9175       1    3044    5360    5370    5359
CTETRA      9176       1    1867    1885    1898    2561
CTETRA      9177       1    2442    3626    3640    3647
CTETRA      9178       1    1819    1820    2459    1572
CTETRA      9179       1    5413    2393    3314    1375
CTETRA      9180       1    1375    3324    1752    3306
CTETRA      9181       1    1375    1366    5416    5439
CTETRA      9182       1    3795    1127    1126    3789
CTETRA      9183       1    1374    1366    5438    5461
CTETRA      9184       1    1574    2455    2717    2526
CTETRA      9185       1    1375    3314    5414    3306
CTETRA      9186       1    1204    1821    1586    2888
CTETRA      9187       1    2372    2478    1153    1721
CTETRA      9188       1    2956    3500    3501    3507
CTETRA      9189       1     809    1721     806    1153
CTETRA      9190       1    1153    1151    2371     806
CTETRA      9191       1    2524    2526    5133    5105
CTETRA      9192       1     431    5396    5391    5843
CTETRA      9193       1     807     808    1721     806
CTETRA      9194       1    1198     850     812     677
CTETRA      9195       1     808     806     809    1721
CTETRA      9196       1    2584    5845    3501    3512
CTETRA      9197       1     819     820     811    2700
CTETRA      9198       1     437    1748     441     984
CTETRA      9199       1    2584    3512    3501    3511
CTETRA      9200       1     165     171     902     168
CTETRA      9201       1     173     791     984     164
CTETRA      9202       1     559    1748    1012    1751
CTETRA      9203       1    1272    1748    1751    1097
CTETRA      9204       1    1272    1754    1750    1753
CTETRA      9205       1    1204    2436    2896    2718
CTETRA      9206       1    2677    2405    3564    3548
CTETRA      9207       1     435    2136    2046     437
CTETRA      9208       1    2411    3579    3580    3578
CTETRA      9209       1    2619    3580    3573    3546
CTETRA      9210       1    1751    1748    1012    1879
CTETRA      9211       1     742     986    2203     983
CTETRA      9212       1    2511    2512    5115    5114
CTETRA      9213       1    3920    1451    3919    3893
CTETRA      9214       1    2827    1753    1750    1754
CTETRA      9215       1    2714    5186    5183    5188
CTETRA      9216       1    1810    3159    3158    3164
CTETRA      9217       1    2948    3137    3139    3136
CTETRA      9218       1    3531    5396    5843    5842
CTETRA      9219       1    2215    5362    5361    5388
CTETRA      9220       1     760    2827    1751    2136
CTETRA      9221       1    1740    3498    3499    3505
CTETRA      9222       1     772    1214     755    2877
CTETRA      9223       1    3020    2735    5182    5178
CTETRA      9224       1    2956    2584    2586    5309
CTETRA      9225       1    3050     775    3051     774
CTETRA      9226       1    1081    5312    5313    5333
CTETRA      9227       1    1082    2450    2750    2395
CTETRA      9228       1    3052    3050     775    3051
CTETRA      9229       1    3020    2313    3176    3149
CTETRA      9230       1    2811    2605    4412    2427
CTETRA      9231       1    2074    3948    3947    3996
CTETRA      9232       1      13     207    1318    1145
CTETRA      9233       1     646    2341    2973    2109
CTETRA      9234       1     646    2811    2801    2603
CTETRA      9235       1      83    3687    3751    3752
CTETRA      9236       1    2811    2605    1875    2340
CTETRA      9237       1    2326    3687    3752    3688
CTETRA      9238       1     644    1875    1324    2811
CTETRA      9239       1     522    3940    3933    3932
CTETRA      9240       1    2037    3287    3262    3286
CTETRA      9241       1    2157    2613    3441    3461
CTETRA      9242       1     678     684     336     676
CTETRA      9243       1     686     849    1753     848
CTETRA      9244       1     680     821    1269     679
CTETRA      9245       1     897    2833    3244    2004
CTETRA      9246       1     809     686    1153     678
CTETRA      9247       1    2654    1993    3268    3269
CTETRA      9248       1    3243    3963    3269    5630
CTETRA      9249       1    1153    1753     686     809
CTETRA      9250       1    5214    5887    5886    4706
CTETRA      9251       1    1753    2203     686     680
CTETRA      9252       1    2524    5151    2430    3194
CTETRA      9253       1    1882    5272    4718    5888
CTETRA      9254       1    1413    4959    4840    4839
CTETRA      9255       1    4841    4858    2579    4840
CTETRA      9256       1     642    4442    4435    4428
CTETRA      9257       1     141    4423    4415    4422
CTETRA      9258       1    2610    4438    4435    4442
CTETRA      9259       1    1857    5835    2114    5306
CTETRA      9260       1     648    4442    4444    4438
CTETRA      9261       1    1605    1686    1708    1690
CTETRA      9262       1     413     994    2220     416
CTETRA      9263       1     419     417     981     420
CTETRA      9264       1     977     699     701     418
CTETRA      9265       1    2123     981     697    2694
CTETRA      9266       1    3874    2684    3894    3893
CTETRA      9267       1    2359    3988    3922    3987
CTETRA      9268       1     419     696     980    2123
CTETRA      9269       1    2273      21     697    1134
CTETRA      9270       1    4155    4160     920    4129
CTETRA      9271       1    2278    5175    5185    5184
CTETRA      9272       1    2273    2286      21    1134
CTETRA      9273       1    2382    3493    3492    3518
CTETRA      9274       1    1820    1571    3240    3191
CTETRA      9275       1    3053    2982      20     981
CTETRA      9276       1    3020    5192    3150    5672
CTETRA      9277       1     972     222    1423     223
CTETRA      9278       1    4669    2224    2219    4650
CTETRA      9279       1    2425    3518    3521    3493
CTETRA      9280       1    4700    2219    4668    4669
CTETRA      9281       1     732     269    1331    2399
CTETRA      9282       1    2766    3007    2390    3693
CTETRA      9283       1     391     727     728     729
CTETRA      9284       1    1533    4228    2877    3014
CTETRA      9285       1     732     728    1956    1331
CTETRA      9286       1    2302    4575    4573    4499
CTETRA      9287       1    3718    5747    3719    4208
CTETRA      9288       1     487    1568     269     272
CTETRA      9289       1    2583    1900    5389    2942
CTETRA      9290       1     487     504     481    1570
CTETRA      9291       1     838     833    1570    1329
CTETRA      9292       1     487     833     504    1570
CTETRA      9293       1    1331    2772     269    1768
CTETRA      9294       1    2408    4272    4269    4270
CTETRA      9295       1    2512    5115    5114    5105
CTETRA      9296       1     270    1694     269     271
CTETRA      9297       1    4653    4269    5806    5807
CTETRA      9298       1    1909    1876    1903    2506
CTETRA      9299       1    1909     489    2831    1169
CTETRA      9300       1     496    1171    1909    2023
CTETRA      9301       1     496     489    1909    1343
CTETRA      9302       1    1909    2525    2526    2506
CTETRA      9303       1    2717    1909    1169    1343
CTETRA      9304       1    2840    3932    3434    3939
CTETRA      9305       1    1061    2159     909    1060
CTETRA      9306       1    2838    3269    3961    3270
CTETRA      9307       1    2459    1820    3192    1572
CTETRA      9308       1    3361     650    3621     683
CTETRA      9309       1    2476    4720    1882    4719
CTETRA      9310       1    1411    5274    5264    5265
CTETRA      9311       1    1909    1169    1343     489
CTETRA      9312       1    1909    1574    2717    2526
CTETRA      9313       1    1144    1146      13     279
CTETRA      9314       1     885    2945     960    1935
CTETRA      9315       1    5178    3176    5671    5672
CTETRA      9316       1    1057    3131    3142    3143
CTETRA      9317       1      10      12     208      25
CTETRA      9318       1    2944    3156    5193    5191
CTETRA      9319       1    3020    5192    2944    3150
CTETRA      9320       1     885    1935     940    1937
CTETRA      9321       1    3156    3155    5674    5191
CTETRA      9322       1    1080    1321    1079    1700
CTETRA      9323       1    1807    3168    3165    3164
CTETRA      9324       1     827    2020    2398    1446
CTETRA      9325       1     350    2395    1082    2750
CTETRA      9326       1    1077    1082    2395    1083
CTETRA      9327       1     370    2181    2997    2575
CTETRA      9328       1    1933    2244     753     752
CTETRA      9329       1    1231    1933     474    1234
CTETRA      9330       1    3497    5391    5844    5843
CTETRA      9331       1     753     752    2244    2458
CTETRA      9332       1     430    5363    5396    5364
CTETRA      9333       1     345    1195     344    1129
CTETRA      9334       1    1423    1842    1843    2434
CTETRA      9335       1    2408    4269    2402    4270
CTETRA      9336       1    1191    1611     256    2387
CTETRA      9337       1    2244    1232    2272    1104
CTETRA      9338       1    1231     215     348    1933
CTETRA      9339       1     521     329     585     584
CTETRA      9340       1    1486    4130    4134    4129
CTETRA      9341       1     585      69      67     329
CTETRA      9342       1     540     329     319     514
CTETRA      9343       1     940     945     944     938
CTETRA      9344       1    5331    5879    4791    5880
CTETRA      9345       1    2579    2578    1686    1915
CTETRA      9346       1    3054     506    1728    3599
CTETRA      9347       1    1913    1911     946     140
CTETRA      9348       1     317     318     324     278
CTETRA      9349       1    1511     319    1906     325
CTETRA      9350       1     692     689     693     691
CTETRA      9351       1     689     691     767     770
CTETRA      9352       1     695     691    2730     176
CTETRA      9353       1    1259    2076    1258    1677
CTETRA      9354       1     511     694    1192    1294
CTETRA      9355       1      75     512     510     505
CTETRA      9356       1     687     635     508    1310
CTETRA      9357       1    2649    2647    1074     121
CTETRA      9358       1    2647     120    1974    1696
CTETRA      9359       1    2648    2647    1974    2210
CTETRA      9360       1    2647     733    2210    2993
CTETRA      9361       1     111    1274     116    1696
CTETRA      9362       1     680     809     686    1753
CTETRA      9363       1     809    1696    2478    1753
CTETRA      9364       1    2510    3241    2540    2436
CTETRA      9365       1    2284    1861      80    1050
CTETRA      9366       1    5782    5677    5908    5619
CTETRA      9367       1    1861    2795      78    1863
CTETRA      9368       1    2284    1861    2795      78
CTETRA      9369       1    1056    2864    2249    2863
CTETRA      9370       1    5651    5731    4132    4051
CTETRA      9371       1    1056    1861    2864    1053
CTETRA      9372       1    1051     252     788     427
CTETRA      9373       1    1046      87    1056    1050
CTETRA      9374       1    5650    4056    3117    5649
CTETRA      9375       1     422    2284      80    1050
CTETRA      9376       1    1056    2863    2249    1049
CTETRA      9377       1    1056    1049    2249    1671
CTETRA      9378       1     136     386     461     149
CTETRA      9379       1    1201    1972    1200    1154
CTETRA      9380       1    1972    3055    1200    1154
CTETRA      9381       1     726     810     727     724
CTETRA      9382       1    1201    1972    1155    1971
CTETRA      9383       1    1865     562    5410    5399
CTETRA      9384       1    3438    5910    3446    5684
CTETRA      9385       1    1865    4828    1461    1866
CTETRA      9386       1    1461    5372    4832    1865
CTETRA      9387       1    1865    4826    1866     562
CTETRA      9388       1    1865    5871    4826    5399
CTETRA      9389       1    1865    4828    1866    4826
CTETRA      9390       1    1865    4830    4826    5871
CTETRA      9391       1    1836    1307    2513    2020
CTETRA      9392       1    1077    1085    3056    1177
CTETRA      9393       1    2889    2452     861    4174
CTETRA      9394       1     360    1815    2022    1703
CTETRA      9395       1    2763    1078    1077    1085
CTETRA      9396       1    1321    1762    1078    1697
CTETRA      9397       1    4142    4139    5785    5020
CTETRA      9398       1    1031     674     672     226
CTETRA      9399       1    1016    1017    2720    1902
CTETRA      9400       1    1017    1902    1222    2829
CTETRA      9401       1    1031    1064     572    1045
CTETRA      9402       1    1889    2942     432    5362
CTETRA      9403       1    1889    5362    1577    2215
CTETRA      9404       1    2906    4236    4249    4250
CTETRA      9405       1    1585    2533    5385    4258
CTETRA      9406       1    1380    3913    3912    3978
CTETRA      9407       1     674    1066    1067    1044
CTETRA      9408       1     672    1904    2859    1222
CTETRA      9409       1    3020    5178    5192    5672
CTETRA      9410       1     674     226    1044    1067
CTETRA      9411       1    1556    1187    2163    1416
CTETRA      9412       1    1381    3911    3912    3885
CTETRA      9413       1    2636     839    1873    1416
CTETRA      9414       1    1416    1415    1873    1417
CTETRA      9415       1    4232    2548    1529    4220
CTETRA      9416       1    1136    4572    4580    4584
CTETRA      9417       1    1416    1556    1187    1431
CTETRA      9418       1    2758    3685    3684    3749
CTETRA      9419       1      72     553    2531     547
CTETRA      9420       1    1335    3767    3754    3766
CTETRA      9421       1    2274    3747    3788    3793
CTETRA      9422       1     230    1738    2425    2424
CTETRA      9423       1    2401    5796    4094    4095
CTETRA      9424       1    2151    3468    2150    3602
CTETRA      9425       1    2685    4687    4732    4742
CTETRA      9426       1    2248    5261    5260    5258
CTETRA      9427       1    2418    3627    3600    3626
CTETRA      9428       1    2736    2265    2630    2947
CTETRA      9429       1    1820    1571    3191    1572
CTETRA      9430       1    2951    5391    5394    5844
CTETRA      9431       1    2956    3501    5846    3507
CTETRA      9432       1    2947    2262    2251    2739
CTETRA      9433       1    2933    3503    3506    3507
CTETRA      9434       1    2947    2709    2708    2736
CTETRA      9435       1     853    3558    2421    3546
CTETRA      9436       1    3046    3768    3761    3777
CTETRA      9437       1    2947    2264    2630    2386
CTETRA      9438       1    2678     750     751    2015
CTETRA      9439       1    5191    1814    1809    2544
CTETRA      9440       1    2947    2264    2386    2251
CTETRA      9441       1    2947    2708    2386    2736
CTETRA      9442       1    2452     861    4174    4173
CTETRA      9443       1    1814    3155    5205    3154
CTETRA      9444       1     910    2787    4536    2300
CTETRA      9445       1    2196    5556    5532    5555
CTETRA      9446       1     910    4536    2787    4534
CTETRA      9447       1    2164    2126    2026    5718
CTETRA      9448       1    2340    3389    3390    3363
CTETRA      9449       1    2953    5710     586    1320
CTETRA      9450       1      65     916    1616     910
CTETRA      9451       1      33     880     548     881
CTETRA      9452       1    1616    2426    2732    2731
CTETRA      9453       1     985    1095    2642     495
CTETRA      9454       1     375    5085    5095    5090
CTETRA      9455       1    4934    2855    2852    1267
CTETRA      9456       1    2461    3900     484     791
CTETRA      9457       1    1616    3005    2426    2731
CTETRA      9458       1     916    2401    2909    2426
CTETRA      9459       1    2793    1812    4120    2732
CTETRA      9460       1    5299    5865    3422    5864
CTETRA      9461       1    5295    5863    5864    3397
CTETRA      9462       1    1812    2732    4121    4120
CTETRA      9463       1    1812    4108    2370    4120
CTETRA      9464       1     878     879    2547    2941
CTETRA      9465       1    1616      70    2790    2732
CTETRA      9466       1    1812    2370    4108      34
CTETRA      9467       1    1273     844    2545     843
CTETRA      9468       1     718     720    2545    1669
CTETRA      9469       1    1273     845    2422    2555
CTETRA      9470       1    1239    1111     831    1109
CTETRA      9471       1    3048     368    2633    4679
CTETRA      9472       1    1094    3802    3803    3811
CTETRA      9473       1    1553    2867    3016    2667
CTETRA      9474       1    2845    4889    4888    4967
CTETRA      9475       1    1273     844    1669    2545
CTETRA      9476       1    1449    1669    2555    1076
CTETRA      9477       1    2284    2538    2839    1345
CTETRA      9478       1     422    2152    2153    2284
CTETRA      9479       1     260    5265    5290    5266
CTETRA      9480       1    2305    3419    3355    3413
CTETRA      9481       1    1044    3221    3218    3101
CTETRA      9482       1    2284    2153    1345     103
CTETRA      9483       1    1665    5129    5130    5117
CTETRA      9484       1    2772    3884    3910    3911
CTETRA      9485       1    2582    2606    2267     975
CTETRA      9486       1     413     700     418     416
CTETRA      9487       1    1825    3784    3753    3786
CTETRA      9488       1     420     981     698    1322
CTETRA      9489       1    2653    3377    3353    5715
CTETRA      9490       1    1314     995     994    1316
CTETRA      9491       1    2451    4912    4905    4911
CTETRA      9492       1    2576    4916    4921    4924
CTETRA      9493       1     232     698     230     228
CTETRA      9494       1    2165    4920    4921    4902
CTETRA      9495       1    5061    5656    5657    3266
CTETRA      9496       1    2103    3300    3296    3295
CTETRA      9497       1    2103    3296    3292    3295
CTETRA      9498       1     476    5076    5072    5075
CTETRA      9499       1    1252    2757    1254    1545
CTETRA      9500       1     698     230    1322    2425
CTETRA      9501       1    3425    2801    3365    4425
CTETRA      9502       1    3420    2810    3424    3425
CTETRA      9503       1    3425    5915    3420    5839
CTETRA      9504       1     217     223    1314     221
CTETRA      9505       1    2322    2639    2677    3556
CTETRA      9506       1    1909    2526    2717    2507
CTETRA      9507       1    2510    2436    2511    3252
CTETRA      9508       1     413     701    2220     995
CTETRA      9509       1    2585    5311    5335    5310
CTETRA      9510       1    2845    2650    4887    4467
CTETRA      9511       1    1890    1893    5090    5095
CTETRA      9512       1     978     981    2694    2695
CTETRA      9513       1    2695    2693     978     979
CTETRA      9514       1     363    3811    3812    3464
CTETRA      9515       1    1342    1340    1341    1579
CTETRA      9516       1    1886     193    1439    1437
CTETRA      9517       1     682    2010     846     679
CTETRA      9518       1     662     986     742     170
CTETRA      9519       1    2904    2905    3455     943
CTETRA      9520       1     435    1748    1093    1097
CTETRA      9521       1    3057    5344    5342    5849
CTETRA      9522       1    5336    5847    3507    5846
CTETRA      9523       1     928     661     495    2184
CTETRA      9524       1     200     198    2613    1995
CTETRA      9525       1     200     196    1995     957
CTETRA      9526       1     200    2157     195    2963
CTETRA      9527       1    1000     957     200     958
CTETRA      9528       1    4564     775    3058    1817
CTETRA      9529       1     200     958    2963     195
CTETRA      9530       1    2832     833    1565     504
CTETRA      9531       1    1817    2659    3059    4578
CTETRA      9532       1    2711    3026     920    4163
CTETRA      9533       1    2023     489     486     504
CTETRA      9534       1    3058    4557     773    4564
CTETRA      9535       1    3016    4158    2711    2667
CTETRA      9536       1    5019     848    1153    3017
CTETRA      9537       1    2293    1565     833    1570
CTETRA      9538       1    2711    5735    3877    3897
CTETRA      9539       1     504    2755    1570    1565
CTETRA      9540       1    2711    4163    2667    4158
CTETRA      9541       1    2711    3897    4162    5735
CTETRA      9542       1     743     848    5039     741
CTETRA      9543       1     504    2832    2023    3015
CTETRA      9544       1     504     482    2755    3015
CTETRA      9545       1     322     923    1276    3043
CTETRA      9546       1     321     323     919     924
CTETRA      9547       1     863    4778    4777    4783
CTETRA      9548       1     107    1385    1805     925
CTETRA      9549       1      95    1833    1450    1554
CTETRA      9550       1    1724    1725    2299    1328
CTETRA      9551       1    1674    5244    5256    5257
CTETRA      9552       1    2661     754    4192    4194
CTETRA      9553       1     100    1805     923     925
CTETRA      9554       1    1276     525     923    2277
CTETRA      9555       1     190     189     603     197
CTETRA      9556       1    2491    5049    5067    5050
CTETRA      9557       1    2971    4302    4326    4303
CTETRA      9558       1     100     102    2277     101
CTETRA      9559       1    1842     253    1841    1423
CTETRA      9560       1     217     222     229     228
CTETRA      9561       1    1462    1463     253    1460
CTETRA      9562       1    1864    1505    1866    1506
CTETRA      9563       1    2949    5066    5050    2491
CTETRA      9564       1    2926    2562    4298    2089
CTETRA      9565       1    2858    4903    4904    4919
CTETRA      9566       1    1864    1841    1463    1460
CTETRA      9567       1    2879    3219    3220    3222
CTETRA      9568       1     221    1841    1842    1868
CTETRA      9569       1    4002    5637    3219    5638
CTETRA      9570       1      43     555     370    2181
CTETRA      9571       1    2639    1307    2322    1242
CTETRA      9572       1    2285    2013    2674     749
CTETRA      9573       1     360    1836    1838    1079
CTETRA      9574       1     468     464     749    1697
CTETRA      9575       1      22      23    1880      20
CTETRA      9576       1     361    3903    3803    3802
CTETRA      9577       1     747     465     464     474
CTETRA      9578       1     326    4959    4896    4840
CTETRA      9579       1     772     775     774    3051
CTETRA      9580       1    2057    4941    4946    4942
CTETRA      9581       1    1604    4408    4407    4415
CTETRA      9582       1    1239     359    1307    1242
CTETRA      9583       1    1698    1420    2674    1242
CTETRA      9584       1    1689    4841    4842    4857
CTETRA      9585       1    1420     851     856    2678
CTETRA      9586       1    2579    4858    4841    4857
CTETRA      9587       1    1420     750     751    2678
CTETRA      9588       1    1430    5153    5154    5159
CTETRA      9589       1     515    1210    3386    3367
CTETRA      9590       1    1517    4380    4292    4374
CTETRA      9591       1    1433    5157    5156    5159
CTETRA      9592       1    1565    5125    5127    5126
CTETRA      9593       1    1291    3969    3908    3907
CTETRA      9594       1     698     419     978     981
CTETRA      9595       1    3031    3818    3819    3853
CTETRA      9596       1     743    5038    5092    5039
CTETRA      9597       1     973    2974    2607    2409
CTETRA      9598       1     701     973     977    2222
CTETRA      9599       1    2066    4697    4666    4665
CTETRA      9600       1    2606    4268    4181    4180
CTETRA      9601       1    2118    4666    4667    4647
CTETRA      9602       1    2822    3550    3551    3555
CTETRA      9603       1     186    3208    3207    3214
CTETRA      9604       1    1422     972     229     222
CTETRA      9605       1    2220    2223    1733    2222
CTETRA      9606       1     425    1592     633     663
CTETRA      9607       1    3143    4024    5640    5641
CTETRA      9608       1    2688    1592     633     425
CTETRA      9609       1     266    1203    1845    2518
CTETRA      9610       1    2602     663     425    2518
CTETRA      9611       1    1491    3334    2366    3333
CTETRA      9612       1     249    1845     425    2518
CTETRA      9613       1     490    2275     492     491
CTETRA      9614       1     493    2407    2078    1443
CTETRA      9615       1    4025    1057    4017    1043
CTETRA      9616       1     313     366     365    2945
CTETRA      9617       1     521     540    1796    1910
CTETRA      9618       1     521     585     329      69
CTETRA      9619       1    2408    4272    4634    5806
CTETRA      9620       1     586     538     521     584
CTETRA      9621       1     513     515     521      69
CTETRA      9622       1    3060    3760    3762    3759
CTETRA      9623       1    3579    2411    3571    3581
CTETRA      9624       1    2742    4641    4622    4640
CTETRA      9625       1    1317    1319    1875    2953
CTETRA      9626       1     585    1317    2953    1320
CTETRA      9627       1    2511    5660    5111    5115
CTETRA      9628       1    2888    3248    3253    3251
CTETRA      9629       1    1404     330    1405    1939
CTETRA      9630       1     585      68    2802    2953
CTETRA      9631       1     905    3992    3965    3964
CTETRA      9632       1     585    2802      69    2133
CTETRA      9633       1     521    2133     515    1210
CTETRA      9634       1    1056    1049    1055    2863
CTETRA      9635       1    1670    1049    2863    1674
CTETRA      9636       1    1704    3247    3257    3246
CTETRA      9637       1     906    3964    3991    3992
CTETRA      9638       1    1861    2250    2249    2844
CTETRA      9639       1    1670    1671    2249    1049
CTETRA      9640       1    2107    3511    3495    3496
CTETRA      9641       1    5394    5844    5845    3512
CTETRA      9642       1    2106    3496    3512    3511
CTETRA      9643       1    2249    1670    1677    1671
CTETRA      9644       1    1866    2032    1505     563
CTETRA      9645       1    5309    5846    3501    5845
CTETRA      9646       1    2373    5180    2378    2712
CTETRA      9647       1    2249    2250    2248    2844
CTETRA      9648       1    2944    3156    5673    5193
CTETRA      9649       1    2544    2626    5190    5189
CTETRA      9650       1    1671    1677    1678    1670
CTETRA      9651       1    1794    2588    5599    5576
CTETRA      9652       1    5192    5672    5673    3150
CTETRA      9653       1    5576    5553    5577    2232
CTETRA      9654       1    3100    5640    4017    5639
CTETRA      9655       1     287    1794    1620     288
CTETRA      9656       1     287    1621    5579    1923
CTETRA      9657       1    5579     287    5602    2232
CTETRA      9658       1    1579    1181     658    1340
CTETRA      9659       1    1491    3341    2367    3334
CTETRA      9660       1    1888    1567     165     171
CTETRA      9661       1    1340    1579    1181    1341
CTETRA      9662       1    1277    5197    5022    5021
CTETRA      9663       1     742    2203     986     686
CTETRA      9664       1    3043    4139    2710    4138
CTETRA      9665       1    1342    2053    1560    1344
CTETRA      9666       1     165     167     172     388
CTETRA      9667       1    1509    2053    1566    1508
CTETRA      9668       1    1489    1491    2367    2366
CTETRA      9669       1    3832    4068    5737    5736
CTETRA      9670       1    1814    1809    1805    2950
CTETRA      9671       1    2681    3897    3896    3923
CTETRA      9672       1    1809    2950    1814    5205
CTETRA      9673       1    2950     524    2212    5198
CTETRA      9674       1    1215    1219    1312    1217
CTETRA      9675       1    3877    5736    5735    4158
CTETRA      9676       1    1389    3585    3574    3584
CTETRA      9677       1    1236    1831     774    2503
CTETRA      9678       1    1641    4786    5877    4803
CTETRA      9679       1    1960    2820    4791    5331
CTETRA      9680       1     853    2315    3563    3475
CTETRA      9681       1    2615    3580    2411    3572
CTETRA      9682       1    1077    2763    1177    1836
CTETRA      9683       1    1635    2376    1136    3041
CTETRA      9684       1    1608    1630    1631    1100
CTETRA      9685       1    1741    3507    3506    3500
CTETRA      9686       1    1636    1614    1536    2728
CTETRA      9687       1      18    1945    2117      17
CTETRA      9688       1      11    1945      18      17
CTETRA      9689       1      16    1714     625     266
CTETRA      9690       1      18     207    1145    2335
CTETRA      9691       1      10      11      18      17
CTETRA      9692       1     625     367     795     258
CTETRA      9693       1    1527    2044    5612    1525
CTETRA      9694       1    1717    1007    1844      19
CTETRA      9695       1    2378    5187    5186    5181
CTETRA      9696       1    1809    1805    2950     525
CTETRA      9697       1    1474     280    1942    1148
CTETRA      9698       1     410    5187    5184    5186
CTETRA      9699       1    1474    1949    1478    1760
CTETRA      9700       1    1814    3154    3162    3155
CTETRA      9701       1    1455    3986    4047    3987
CTETRA      9702       1    1392    1949     182     184
CTETRA      9703       1    1949    2305    1475    1478
CTETRA      9704       1    2434    4651    4671    4652
CTETRA      9705       1    2695     981    2694    2382
CTETRA      9706       1    1378     471    4628    4611
CTETRA      9707       1    2425    3518    3520    3521
CTETRA      9708       1    4331    3370    5773    5774
CTETRA      9709       1    2577    3352    3369    3368
CTETRA      9710       1       6     126     130     531
CTETRA      9711       1     178     185     184    1942
CTETRA      9712       1     263     262     252     249
CTETRA      9713       1    1306    5214    5241    4706
CTETRA      9714       1    5241    5886    5885    4765
CTETRA      9715       1     249    2518     265     260
CTETRA      9716       1    1058    5240    5216    5239
CTETRA      9717       1     794    1714     258     367
CTETRA      9718       1    2407    1442    1443     493
CTETRA      9719       1     826    2919    1448    2415
CTETRA      9720       1    1389    1390    1446    3023
CTETRA      9721       1    2398    1447    1389    2514
CTETRA      9722       1    2398    1446    2020    3061
CTETRA      9723       1    3053    2383    3508    3492
CTETRA      9724       1     827     352     350    1883
CTETRA      9725       1    1376    2365    1366    2745
CTETRA      9726       1    1376    1367    2745    1366
CTETRA      9727       1    1368    1367    1376    1366
CTETRA      9728       1     163    3346    2508    3341
CTETRA      9729       1    2654    3963    3243    3960
CTETRA      9730       1    2045    1367    2195    5442
CTETRA      9731       1    1376    2499    1788    2366
CTETRA      9732       1    3194    5663    5151    5150
CTETRA      9733       1    2348    2622    2255    2254
CTETRA      9734       1    5631    3243    5630    3960
CTETRA      9735       1    1363    1489    1491    2367
CTETRA      9736       1    2498    3343    3349    2737
CTETRA      9737       1    2254    2445    2342    1481
CTETRA      9738       1    1365    1363    1364    1483
CTETRA      9739       1    2142     615     904    1466
CTETRA      9740       1    5269    5860    5861    3404
CTETRA      9741       1     616    5475    1465    1365
CTETRA      9742       1    1914    5863    3397    3407
CTETRA      9743       1     616    2254    1489    1363
CTETRA      9744       1    1488     616    1466    2092
CTETRA      9745       1     551    5492    5469    5468
CTETRA      9746       1    5051    4303    5832    4319
CTETRA      9747       1    4326    5831    5830    4904
CTETRA      9748       1    2071    4303    5051    4319
CTETRA      9749       1    1491     203     205    1363
CTETRA      9750       1    1377    5509    2618    2955
CTETRA      9751       1    1377    5509    5485    2618
CTETRA      9752       1    1377    5485    1373    2618
CTETRA      9753       1    1856    5304    5300    5305
CTETRA      9754       1     622    3416    3356    3357
CTETRA      9755       1    2775    5265    5264    5289
CTETRA      9756       1    1368    5464    1377    2195
CTETRA      9757       1    1057    4029    2568    1065
CTETRA      9758       1    1377    2195    5464    2837
CTETRA      9759       1    1368    1377    5462    1373
CTETRA      9760       1    2758    3750    3685    3749
CTETRA      9761       1    1373    1377    5462    5485
CTETRA      9762       1      83    3686    3751    3687
CTETRA      9763       1    1377    2955    2837    5487
CTETRA      9764       1    2950     923    1805    1783
CTETRA      9765       1    1456    2854    3984    2129
CTETRA      9766       1    2950    2212     524    3043
CTETRA      9767       1    2948    2857    3141    4052
CTETRA      9768       1    1363     163    2508    1491
CTETRA      9769       1    2683    3921    3987    3922
CTETRA      9770       1    2322    3553    3556    3555
CTETRA      9771       1    1372    4806    4820    4807
CTETRA      9772       1    1770     926    1769     925
CTETRA      9773       1     926    4137    4143    1769
CTETRA      9774       1    2848    5229    5231    5230
CTETRA      9775       1    2942    2215    5400    5388
CTETRA      9776       1     713      95    1554      93
CTETRA      9777       1    1577    1628    2215    5361
CTETRA      9778       1    2382    3518    2695    2425
CTETRA      9779       1    2560    5403    5404    5313
CTETRA      9780       1    1498    2101    1889     231
CTETRA      9781       1    1057    3142    5641    3143
CTETRA      9782       1    1053    1050     651     652
CTETRA      9783       1    2957    4284    4287    4285
CTETRA      9784       1    1564    4255    4251    4254
CTETRA      9785       1     923    1805    1783     925
CTETRA      9786       1    2777    2408    2402    2409
CTETRA      9787       1     641     646    1323     655
CTETRA      9788       1    1660    1800    4266    4239
CTETRA      9789       1    2533    5383    5380    5379
CTETRA      9790       1    2081     410    5176     412
CTETRA      9791       1    1945    1388    2485    2479
CTETRA      9792       1    2537    5168    3175    5173
CTETRA      9793       1    1945    2334     207    2117
CTETRA      9794       1    2734    3177    3176    3172
CTETRA      9795       1      18    2117    1945     207
CTETRA      9796       1    3175    5168    3177    5670
CTETRA      9797       1     693     692     174    1189
CTETRA      9798       1    1240    1241    1309    2619
CTETRA      9799       1    2381    2761    2590    1755
CTETRA      9800       1    2807    5253    2864    5226
CTETRA      9801       1      52     779     854     688
CTETRA      9802       1    1863    1862    2794    1724
CTETRA      9803       1    2236    2402    1131    1660
CTETRA      9804       1    1800    4266    4239    4289
CTETRA      9805       1     863    1501    2590    1112
CTETRA      9806       1    1309    1111     687    1311
CTETRA      9807       1    2974    4268    4267    4286
CTETRA      9808       1    3026    1516    1515    3924
CTETRA      9809       1     687    1311     862    1310
CTETRA      9810       1     640     638     863     639
CTETRA      9811       1    1434    2129     371    1581
CTETRA      9812       1    2366    1788    1376    1487
CTETRA      9813       1    3026    4163    4162    4160
CTETRA      9814       1     920    4175    4156    4155
CTETRA      9815       1    1368    1377    1376    2195
CTETRA      9816       1    5441    5440    1367    2195
CTETRA      9817       1    5417    2745    3325    1367
CTETRA      9818       1    2807    5253    2844    2864
CTETRA      9819       1    1367    2745    3325    2499
CTETRA      9820       1    5439    1366    5416    1367
CTETRA      9821       1     844    4870    4869    5002
CTETRA      9822       1    3052    4563    1816    4564
CTETRA      9823       1    1367    2745    5416    5417
CTETRA      9824       1    1546    2906    2937    4249
CTETRA      9825       1     786     788     781     797
CTETRA      9826       1     947    1304    2441    1835
CTETRA      9827       1    2441    1835    1058     947
CTETRA      9828       1    2661    4578    1817    4555
CTETRA      9829       1     952    1304    1835     970
CTETRA      9830       1    5248    4765    5885    4767
CTETRA      9831       1    2659    4501    2301    4582
CTETRA      9832       1    4767    2776    1835    4766
CTETRA      9833       1     186    5165    2746    5171
CTETRA      9834       1     952    1048    1835     947
CTETRA      9835       1    1046    2131     947    1052
CTETRA      9836       1    1046    1051    1052     947
CTETRA      9837       1    3062    3063    3866    3867
CTETRA      9838       1    2903    3849    3848    3850
CTETRA      9839       1     186    3208    2464     187
CTETRA      9840       1    1559    1562    2214    1038
CTETRA      9841       1    1558    1706    1707    2634
CTETRA      9842       1    2689    3882    3909    3883
CTETRA      9843       1    1559    2447    1774     907
CTETRA      9844       1    1560    2876    2053    2898
CTETRA      9845       1    1558    2325    1561     814
CTETRA      9846       1    2447    1228    1508     532
CTETRA      9847       1    2447    1792    1706    2075
CTETRA      9848       1    1706    2634    2833    1707
CTETRA      9849       1    3058    3059    4579    4583
CTETRA      9850       1     713     714     716     720
CTETRA      9851       1    1434    1581    1456    2129
CTETRA      9852       1    1403    2279    2281    1588
CTETRA      9853       1      97    2870     371    1452
CTETRA      9854       1     378    1435     545     542
CTETRA      9855       1    2455    2465    2717    5103
CTETRA      9856       1    3059    2729    4579    4584
CTETRA      9857       1    1817    4563    4556    4564
CTETRA      9858       1    1590     270    1591    1744
CTETRA      9859       1    1905    2430    1903    1877
CTETRA      9860       1    1882    5272    5888    5273
CTETRA      9861       1    1306    1410    5271    5272
CTETRA      9862       1     938    2050     939     946
CTETRA      9863       1    2476    5262    2116    5263
CTETRA      9864       1     264    2131     263     262
CTETRA      9865       1     735    2271      37      28
CTETRA      9866       1    1306    1305    1882    4718
CTETRA      9867       1    2565    4560    2596    4561
CTETRA      9868       1    1658    1874    1877     237
CTETRA      9869       1    1905    2459    1819    2525
CTETRA      9870       1    1905    1903    2430    2525
CTETRA      9871       1    2563    4633    4615    4632
CTETRA      9872       1    1033    1658    1903    1663
CTETRA      9873       1     388     170     375     390
CTETRA      9874       1     171    1508    1887    1507
CTETRA      9875       1    4616    5804    5805    4179
CTETRA      9876       1    2783    4272    4271    4179
CTETRA      9877       1     627     156    2521     665
CTETRA      9878       1     665     660     658    2651
CTETRA      9879       1     186    5667    5143    5171
CTETRA      9880       1     169     170     662     660
CTETRA      9881       1     186     187    3207    3208
CTETRA      9882       1     373     627     374     537
CTETRA      9883       1     902    1507     171    1567
CTETRA      9884       1    3016    4158    4159    4068
CTETRA      9885       1    2934    3896    3876    3895
CTETRA      9886       1     171    1887    1888    1507
CTETRA      9887       1    2828    4077    4085    4083
CTETRA      9888       1     155     537     171     665
CTETRA      9889       1     165     661     171     169
CTETRA      9890       1     648    2049    2610    4438
CTETRA      9891       1     643    2051     642    2610
CTETRA      9892       1     920    4163    4160    4155
CTETRA      9893       1    2740    4871    5003    5004
CTETRA      9894       1    4068    3832    5737    4082
CTETRA      9895       1     643     648    2610     642
CTETRA      9896       1     267     934    1855     279
CTETRA      9897       1    1737    3501    3500    3511
CTETRA      9898       1     430    5396     431    3531
CTETRA      9899       1    2584    3512    5394    5845
CTETRA      9900       1     329     585     935      67
CTETRA      9901       1    2933    3507    5847    3503
CTETRA      9902       1      67     585     935      68
CTETRA      9903       1     521    1796     538    1797
CTETRA      9904       1    1911    2050     141    4414
CTETRA      9905       1     328     324    1913     944
CTETRA      9906       1    1911    1604      67      66
CTETRA      9907       1    1809    2544    2626    5190
CTETRA      9908       1    2944    3156    5191    3155
CTETRA      9909       1    2734    5177    5178    5168
CTETRA      9910       1     102    2712     101    2373
CTETRA      9911       1    2734    5671    3176    3177
CTETRA      9912       1    1911     140    1604     141
CTETRA      9913       1     186    3214    5143    5667
CTETRA      9914       1     946     140    2050    2051
CTETRA      9915       1    1580    4035    4038    4041
CTETRA      9916       1    5670    3177    5671    5168
CTETRA      9917       1     939     945     946    2051
CTETRA      9918       1     754    2495     744    2186
CTETRA      9919       1    1640      80    2442    2418
CTETRA      9920       1     787     786     781    1997
CTETRA      9921       1     429     105     274     275
CTETRA      9922       1      74      76      79      82
CTETRA      9923       1     427    1008     429     250
CTETRA      9924       1     512     118     110     117
CTETRA      9925       1     426     421     427     429
CTETRA      9926       1     421     429     428     250
CTETRA      9927       1    2944    5194    2544    5193
CTETRA      9928       1    2089    4342    4343    4298
CTETRA      9929       1     421     252     263     422
CTETRA      9930       1    2655    3442    3352    3351
CTETRA      9931       1     559     565    1013     557
CTETRA      9932       1    1749    1092    1094    1093
CTETRA      9933       1     561     759     592    2007
CTETRA      9934       1    2889    4174    4156    4175
CTETRA      9935       1    2667    4159    4158    4163
CTETRA      9936       1    2867    4068    4159    4069
CTETRA      9937       1     594     761    1878     592
CTETRA      9938       1    1817     775    3058     772
CTETRA      9939       1     559      32      38     561
CTETRA      9940       1    1523    5247    5883    5249
CTETRA      9941       1    5249    5884    4763    4767
CTETRA      9942       1    5248    5241    5885    4765
CTETRA      9943       1    2776    4763    4766    4767
CTETRA      9944       1    2196    5558    5535    5534
CTETRA      9945       1     183     559     594      32
CTETRA      9946       1    2956    2933    1741    3507
CTETRA      9947       1    2655    3442    3351    3449
CTETRA      9948       1    2653    5716    2869    1811
CTETRA      9949       1    1163    1936    1207    1948
CTETRA      9950       1     734    1974     124     116
CTETRA      9951       1    4333    3351    5775    5776
CTETRA      9952       1     422     274    2153     423
CTETRA      9953       1     274    2153     105     426
CTETRA      9954       1     360    1702    1815    1703
CTETRA      9955       1    2466    3294    2781    3287
CTETRA      9956       1    2818    2738    3502    1182
CTETRA      9957       1     899    2028    2104     898
CTETRA      9958       1    2466    3286    2028    3302
CTETRA      9959       1    4599    5804    4197    5803
CTETRA      9960       1    2466    2781    3294    2104
CTETRA      9961       1     973    2957    2974    1804
CTETRA      9962       1    1619    2990    2670    2252
CTETRA      9963       1     716    2620    1619    2990
CTETRA      9964       1    2412    4197    4196    5803
CTETRA      9965       1    1619    2252    2670    2251
CTETRA      9966       1    2251    2601    2670    1619
CTETRA      9967       1     310     301    2252    2251
CTETRA      9968       1     300     304     305    1070
CTETRA      9969       1     716    1619    2620    2617
CTETRA      9970       1    1619    2386    2601    2616
CTETRA      9971       1    2497    3694    3708    3693
CTETRA      9972       1    3516    3515    3521    2425
CTETRA      9973       1    1523    5249    2776    1524
CTETRA      9974       1    1619    1125    2264    2616
CTETRA      9975       1    2402    4273    4270    4269
CTETRA      9976       1     246     238     702     241
CTETRA      9977       1    2738    1182    1183    3502
CTETRA      9978       1    3678    5738    4083    5739
CTETRA      9979       1    2663    4070    4093    4076
CTETRA      9980       1    1084    5333    1081    1083
CTETRA      9981       1     837    1332     447    1989
CTETRA      9982       1     719    4070    4177    4071
CTETRA      9983       1     446    2706     247    3039
CTETRA      9984       1     446    3039    1187    2468
CTETRA      9985       1     451    2374     446    1601
CTETRA      9986       1    1611    1426    2236    1660
CTETRA      9987       1    2222    2380    2607    2563
CTETRA      9988       1    2177    4911    4900    4916
CTETRA      9989       1     700     416    2218    2502
CTETRA      9990       1    1733    2224     995     223
CTETRA      9991       1     522    3933    2000     485
CTETRA      9992       1    2654    3269    2838    1993
CTETRA      9993       1    2220     994    2218     416
CTETRA      9994       1    1980    3665    3784    3759
CTETRA      9995       1     819    1161     811     807
CTETRA      9996       1    2446    2189    4661    2420
CTETRA      9997       1    2151    3602    3467    3468
CTETRA      9998       1    2446    4641    4661    4642
CTETRA      9999       1     810    2699    2355     811
CTETRA     10000       1    1678    4758    4775    4768
CTETRA     10001       1    1199     339    2980    1955
CTETRA     10002       1     812    1200    1199    1154
CTETRA     10003       1    2143    2697     725    2696
CTETRA     10004       1    2980     503     338     339
CTETRA     10005       1    1984    2216    1330    1986
CTETRA     10006       1    1993    3270    3267    3269
CTETRA     10007       1    1771    2075    1792    3954
CTETRA     10008       1    1764    3956    3954    3949
CTETRA     10009       1     905    3965    3992    3993
CTETRA     10010       1     894     898    2037     893
CTETRA     10011       1     431    3497    5843    5391
CTETRA     10012       1    1497    1547    3534    3530
CTETRA     10013       1    2940    2587    2938    5311
CTETRA     10014       1     332     333    1295    1289
CTETRA     10015       1     391    1954    1539    1538
CTETRA     10016       1    1984    1985    1954    3064
CTETRA     10017       1    1497    3533    3530    3534
CTETRA     10018       1    1332     841    1330    2216
CTETRA     10019       1    2327    3497    3496    3530
CTETRA     10020       1     431    3531    3497    3530
CTETRA     10021       1    1332    1984    2356    2216
CTETRA     10022       1    2521     658    2052     534
CTETRA     10023       1    2441    5271    5215    5214
CTETRA     10024       1    1579    2465    2052     534
CTETRA     10025       1    2441    1410    1412    5271
CTETRA     10026       1     171     659    1566    1509
CTETRA     10027       1    1573    1579    1343    2465
CTETRA     10028       1    2940    1084    5334    1081
CTETRA     10029       1    3187    5633    5634    3947
CTETRA     10030       1     224    1078    1080    1321
CTETRA     10031       1    2289     839    1989     840
CTETRA     10032       1    3235    5632    5633    3959
CTETRA     10033       1    1821    3240    3253    3254
CTETRA     10034       1    1174    3028     233    2913
CTETRA     10035       1     245    3065     247    2706
CTETRA     10036       1    3066    5112    3276    5057
CTETRA     10037       1    1707    3246    3256    3245
CTETRA     10038       1     446     245     247    2706
CTETRA     10039       1    2933    5343    5847    5336
CTETRA     10040       1     300     306     766     307
CTETRA     10041       1     246     446     245     247
CTETRA     10042       1    2817    5337    5335    5334
CTETRA     10043       1    2586    2587    5390    1900
CTETRA     10044       1    2956    5846    5336    3507
CTETRA     10045       1     702     241     238    3027
CTETRA     10046       1     447    1176     241    1140
CTETRA     10047       1    1249     450    1598     449
CTETRA     10048       1    3495    3511    2107    3510
CTETRA     10049       1    2102     431     432    5395
CTETRA     10050       1    1611    2236    1426     255
CTETRA     10051       1     392     387     149     146
CTETRA     10052       1    2819    1086    2738    1085
CTETRA     10053       1    2818    3057    3504    5344
CTETRA     10054       1    1305     970    2477    4707
CTETRA     10055       1    2416    3358    3637    3633
CTETRA     10056       1     993    5279    5280    5281
CTETRA     10057       1    1835    5248    4765    5241
CTETRA     10058       1     501    2166     460    1196
CTETRA     10059       1    1102    1104    1231    1105
CTETRA     10060       1    1412    5275    5278    5279
CTETRA     10061       1     859    1918      52    2181
CTETRA     10062       1    2477    4744    4737    4743
CTETRA     10063       1    2674    2013    2014    1420
CTETRA     10064       1    2990    2834    3835    3067
CTETRA     10065       1     855     858    2337    2178
CTETRA     10066       1     344     343    1839    1129
CTETRA     10067       1    2601    4077    4103    4078
CTETRA     10068       1     170     165     388     168
CTETRA     10069       1    2620    4083    4082    4076
CTETRA     10070       1    2385    4085    4087    5740
CTETRA     10071       1    2385    2708    2669    3704
CTETRA     10072       1     164     397    2641     484
CTETRA     10073       1    2529    2531    3047    2530
CTETRA     10074       1    1336    3745    3767    3776
CTETRA     10075       1     165     166     535     902
CTETRA     10076       1    2941    4063    4062    4219
CTETRA     10077       1    2641     164     173    1888
CTETRA     10078       1     984     441    2460     790
CTETRA     10079       1    4493    4196    5802    5803
CTETRA     10080       1     164     398    2461    2460
CTETRA     10081       1     297    2790      70    2793
CTETRA     10082       1      73     297    2263    2265
CTETRA     10083       1    4527    5795    5796    4095
CTETRA     10084       1     385     298     308    2345
CTETRA     10085       1    2853    4054    5647    4057
CTETRA     10086       1    1485     926     922    4128
CTETRA     10087       1    2287     112    2151    2150
CTETRA     10088       1    2287     771    2150     589
CTETRA     10089       1    2350    4056    4049    4058
CTETRA     10090       1    1720    3134    3133    3171
CTETRA     10091       1    1696     120     121    2647
CTETRA     10092       1     409     410     412    2713
CTETRA     10093       1    2308    3146    3145    3185
CTETRA     10094       1    1456    3985    3984    4044
CTETRA     10095       1    2665    3983    3917    3982
CTETRA     10096       1    1455    3986    4043    4047
CTETRA     10097       1    2645    2975    1391    3116
CTETRA     10098       1    1943     142    1201    1944
CTETRA     10099       1    1722     746     745     114
CTETRA     10100       1    2287    2150     115     112
CTETRA     10101       1    1861    2282    2848    2807
CTETRA     10102       1    1523    5249    5883    4763
CTETRA     10103       1    2776    4767    5249    4763
CTETRA     10104       1    5249    4767    5248    5884
CTETRA     10105       1    5246    5882    5881    4756
CTETRA     10106       1    1292    4759    1293    4752
CTETRA     10107       1    1674    5247    5243    5244
CTETRA     10108       1    1944    1160    1161    2629
CTETRA     10109       1    1160    2629    3068    1161
CTETRA     10110       1    2819    1084    5350    5337
CTETRA     10111       1    4764    5883    5247    5882
CTETRA     10112       1    1957     147    2882     394
CTETRA     10113       1     147     461    1977    2964
CTETRA     10114       1     143    1977     142    3001
CTETRA     10115       1    1051     788    1953     785
CTETRA     10116       1     266    2518     260     617
CTETRA     10117       1    1046    1051    1048    1953
CTETRA     10118       1    1052    1054    2131    5281
CTETRA     10119       1     422    1052    2132     423
CTETRA     10120       1     422     252     263    1052
CTETRA     10121       1    2530    4084    4080    4081
CTETRA     10122       1     720    1669    1157    2545
CTETRA     10123       1     757    3033    1167    2910
CTETRA     10124       1     718    1273    2545     320
CTETRA     10125       1    2711    3026    4162    3897
CTETRA     10126       1    2630    4104    4117    4105
CTETRA     10127       1    1523    4761    1672    2865
CTETRA     10128       1     718    2545     720    2360
CTETRA     10129       1    2712    2554    2714    2422
CTETRA     10130       1    3703    4086    5742    5741
CTETRA     10131       1     924     100     717     322
CTETRA     10132       1     102    2714    2378     109
CTETRA     10133       1     108     102     109     409
CTETRA     10134       1    2263    4118    4119    4106
CTETRA     10135       1    2357    4537     383    4529
CTETRA     10136       1    1969    4206    5745    4205
CTETRA     10137       1    1851    1708    1687    1709
CTETRA     10138       1     913    4170    4075    4074
CTETRA     10139       1    3674    2768    2644    2638
CTETRA     10140       1    2791    2437    2438    2439
CTETRA     10141       1    1869    2205    4372    1709
CTETRA     10142       1     240    1138     246     702
CTETRA     10143       1     873    2115    1517    2303
CTETRA     10144       1    2723    1452    3893    3892
CTETRA     10145       1    2620    4093    4077    4076
CTETRA     10146       1    2990    3067    3835    3833
CTETRA     10147       1    1869    1519    2428     613
CTETRA     10148       1    2617    2663    1123    4093
CTETRA     10149       1    4512    4170    5789    5790
CTETRA     10150       1    1869    1709    4372    4363
CTETRA     10151       1    1869    4373    2428    4362
CTETRA     10152       1    1869    2428    4380    4362
CTETRA     10153       1    1869    1710    4363    4379
CTETRA     10154       1    1553    2666     321     721
CTETRA     10155       1    2877    4215    4228    4216
CTETRA     10156       1    4363    1709    1710    1869
CTETRA     10157       1     976     980     974    1615
CTETRA     10158       1     221     995    2224     223
CTETRA     10159       1     975     976     980     974
CTETRA     10160       1    4561    5801    5802    4198
CTETRA     10161       1    1314     221     995    1316
CTETRA     10162       1     976     978     980    2871
CTETRA     10163       1    2797    4116    4115    4123
CTETRA     10164       1    2385    3700    5740    4087
CTETRA     10165       1     419     981     697    2123
CTETRA     10166       1     812     850    1199     727
CTETRA     10167       1     677     807     808     815
CTETRA     10168       1    2080     997    1969    2449
CTETRA     10169       1     148    1539    1541    1538
CTETRA     10170       1    3055    1154    1199    1200
CTETRA     10171       1     914    4073    4169    4074
CTETRA     10172       1    1972    2725    1200    3055
CTETRA     10173       1    2379    4098    4097    4114
CTETRA     10174       1    1539    1200    3069    2924
CTETRA     10175       1    1200    3055    3070    1199
CTETRA     10176       1    1539    2976    1955    2924
CTETRA     10177       1      29     565     557    1282
CTETRA     10178       1    1392    2952     184     565
CTETRA     10179       1    1553    2934    1450    2667
CTETRA     10180       1    1666    2891    1354    3029
CTETRA     10181       1    3700    5740    4087    5741
CTETRA     10182       1     965    2987     502    1701
CTETRA     10183       1    2988    1701    2967     965
CTETRA     10184       1    1195    1666    2166    1354
CTETRA     10185       1     966    1197     805     799
CTETRA     10186       1    2180     736    1918    2575
CTETRA     10187       1    2797    4116    4123    4118
CTETRA     10188       1    2708    4086    4087    4079
CTETRA     10189       1    2386    4079    4087    4078
CTETRA     10190       1    1387    1814    1807    1805
CTETRA     10191       1    2934    2681    3896    2683
CTETRA     10192       1    1814    2944    2544    5191
CTETRA     10193       1    1196     460     502    1194
CTETRA     10194       1    2966    1325     453    2125
CTETRA     10195       1    2166    2891    1196    2893
CTETRA     10196       1    1194     452     502    1197
CTETRA     10197       1     457     459    2179    1978
CTETRA     10198       1     257     787     427    1008
CTETRA     10199       1    1336    3776    3746    3745
CTETRA     10200       1    2565    4193    4198    4189
CTETRA     10201       1     794     786    1846     797
CTETRA     10202       1     773    4557    4579    4558
CTETRA     10203       1    1008    1844     621    1209
CTETRA     10204       1     427    1640     429    1207
CTETRA     10205       1     249    2518     266    1845
CTETRA     10206       1     634     825    2407     862
CTETRA     10207       1    2766    3710    3692    3693
CTETRA     10208       1    2407     862    1725    1724
CTETRA     10209       1    2736    4079    4105    4080
CTETRA     10210       1    3005    4508    4507    4524
CTETRA     10211       1    2630    4105    4079    4104
CTETRA     10212       1    2790    4122    4123    4115
CTETRA     10213       1    3029    1666    2988     575
CTETRA     10214       1    2708    4087    4086    5741
CTETRA     10215       1     707    1165    1142    1643
CTETRA     10216       1    1666    1354    1353    3029
CTETRA     10217       1    1983    2172    1732    2170
CTETRA     10218       1    2595    4490    4596    4491
CTETRA     10219       1    1133    1237    1106    1220
CTETRA     10220       1    2425    1322    1742     230
CTETRA     10221       1    2547    4221    4064    4220
CTETRA     10222       1    1133    1220    1231    1217
CTETRA     10223       1    1378    4629    4611    4628
CTETRA     10224       1    1236    1219     774    1685
CTETRA     10225       1    1133    1236    1219    1217
CTETRA     10226       1    1297    2085    2086    2164
CTETRA     10227       1    1297    2869    2085    2164
CTETRA     10228       1    1711    1712    2055    2057
CTETRA     10229       1    3050    4215    4190    4189
CTETRA     10230       1    1970    4232    4224    4223
CTETRA     10231       1    2982    3491    3480    3519
CTETRA     10232       1    3051    4191    4190    4216
CTETRA     10233       1    2729    4579    4580    4581
CTETRA     10234       1       7       3     281    1942
CTETRA     10235       1    2974    1804    4286    4267
CTETRA     10236       1    2126    2613     198    2026
CTETRA     10237       1     194     195     200    2157
CTETRA     10238       1     230    2695    2424    2425
CTETRA     10239       1    2594    4614    4597    4613
CTETRA     10240       1     189     602     601    2211
CTETRA     10241       1    1884    4214    4215    4189
CTETRA     10242       1    2122    3788    3776    3775
CTETRA     10243       1       9     281     292     433
CTETRA     10244       1    3765    2874    1335    3766
CTETRA     10245       1    4213    4203    1828    4202
CTETRA     10246       1     197     190     198    1296
CTETRA     10247       1     604     603    1296     190
CTETRA     10248       1    4563    5800    4195    5799
CTETRA     10249       1    1638    3044    5370    5359
CTETRA     10250       1    3071    4562    4490    4491
CTETRA     10251       1     386    1194    1195    1193
CTETRA     10252       1     965     805    2967    1247
CTETRA     10253       1     575     576     965    3024
CTETRA     10254       1    2661    4194    4060    5798
CTETRA     10255       1    1755    1109     831    1112
CTETRA     10256       1    1213    1192    2444     511
CTETRA     10257       1     688     692     175     691
CTETRA     10258       1    2961    4086    4080    4084
CTETRA     10259       1    1581    2854    1023     570
CTETRA     10260       1    2736    4080    4086    4079
CTETRA     10261       1    1402    1225    2281    3072
CTETRA     10262       1    1403    1402     376     239
CTETRA     10263       1      77    1671    1859    2090
CTETRA     10264       1    1860    2250    2245    2248
CTETRA     10265       1    2667     920    4156    4163
CTETRA     10266       1    2349    5480    2348    2229
CTETRA     10267       1    2274    2851    1107    3793
CTETRA     10268       1    1374    2269    1373    2392
CTETRA     10269       1    2769    3709    3715    3710
CTETRA     10270       1    1523    1674    2865    1672
CTETRA     10271       1    2961    5742    4086    4084
CTETRA     10272       1    1553    2791    2835    2621
CTETRA     10273       1    1374    2349    5459    2393
CTETRA     10274       1    5902    2349    5481    2862
CTETRA     10275       1    1374    2349    5482    5459
CTETRA     10276       1     999    3691    3731    3692
CTETRA     10277       1    2352    4107    4066    4081
CTETRA     10278       1    5482    2349    1374    2392
CTETRA     10279       1    3073    2537     187    1654
CTETRA     10280       1    1523    4764    5883    5247
CTETRA     10281       1    2767    3715    3716    3710
CTETRA     10282       1     383    4537    4535    4538
CTETRA     10283       1    1587    1022     411    1588
CTETRA     10284       1    3051    4195    4190    4191
CTETRA     10285       1    3052    4195    4563    5800
CTETRA     10286       1    2469    4210    4226    4211
CTETRA     10287       1    1530    4226    4225    4233
CTETRA     10288       1      72    2351    2353    2370
CTETRA     10289       1    1587    1021    1019    1589
CTETRA     10290       1    1654    1429    2746     187
CTETRA     10291       1    2877    3014    4228    4213
CTETRA     10292       1    1587     411    1654    1653
CTETRA     10293       1    2661     754     744    4192
CTETRA     10294       1    1816    4191    4194    4195
CTETRA     10295       1    2503    1759    2596    2595
CTETRA     10296       1    2503    1759    2502     416
CTETRA     10297       1      59    1533    1214      58
CTETRA     10298       1    2501    1235    1217    2503
CTETRA     10299       1    2503    1312    2501    3071
CTETRA     10300       1    1816    4194    4555    5799
CTETRA     10301       1    2503    1759    2595    2502
CTETRA     10302       1     650    5283    1934    5277
CTETRA     10303       1    1285    3746    3682    3681
CTETRA     10304       1     650     652     423    1934
CTETRA     10305       1    2443    4206    4222    4223
CTETRA     10306       1     650    5220    2282    2283
CTETRA     10307       1     650    1934    5283     652
CTETRA     10308       1    2152    2282     650     667
CTETRA     10309       1    5797    5798    4502    4060
CTETRA     10310       1    2454    2656    1758    2448
CTETRA     10311       1    2220     700    2218    2223
CTETRA     10312       1     754    4217    4192    4191
CTETRA     10313       1     153    3012     160     158
CTETRA     10314       1    2448    1758    2657    2656
CTETRA     10315       1    3713    5743    4067    5744
CTETRA     10316       1    1532    1530    1758    2657
CTETRA     10317       1    2453    1285    1283    1758
CTETRA     10318       1    2200    1532    2656      56
CTETRA     10319       1    1440     153     156     627
CTETRA     10320       1     878    2547    1812    2909
CTETRA     10321       1    2352    4066    4067    4081
CTETRA     10322       1      35    2656    2080    2548
CTETRA     10323       1      35    2080    2656    2079
CTETRA     10324       1    2080    3008    1969     997
CTETRA     10325       1    1376    1366    2255    2268
CTETRA     10326       1    2082     476    5072    5070
CTETRA     10327       1     999    3716    3711    3691
CTETRA     10328       1    3059    4582    4583    4578
CTETRA     10329       1    3074    2255    1752    2393
CTETRA     10330       1    1483    1365    2254    1480
CTETRA     10331       1    2962    4084    4081    4067
CTETRA     10332       1    4573    2300    4499    4500
CTETRA     10333       1    2495    2661    1817     754
CTETRA     10334       1    1523    2776    2865    1524
CTETRA     10335       1     744    4192    4218    4061
CTETRA     10336       1    2255    1489    2367    2365
CTETRA     10337       1    1269     679    1288    2185
CTETRA     10338       1    1269     679    2520    1288
CTETRA     10339       1    2850    3730    3739    3731
CTETRA     10340       1    1523    2865    4763    4761
CTETRA     10341       1    2661    2660    4502    4060
CTETRA     10342       1     744    4061    4218    4062
CTETRA     10343       1     983    2136    2826    3075
CTETRA     10344       1     676     685     742     686
CTETRA     10345       1    1269    1096     679    2185
CTETRA     10346       1    2401    4094    4111    4095
CTETRA     10347       1     821    2520     816    1269
CTETRA     10348       1    2660    4061    4060    4192
CTETRA     10349       1    2324    1098     362     361
CTETRA     10350       1    2203    1097     680    1753
CTETRA     10351       1    1272    1751    1750    1754
CTETRA     10352       1     626    5073    3045     627
CTETRA     10353       1    1686     325    2209     326
CTETRA     10354       1    2660    4094    4060    4061
CTETRA     10355       1     513      67     519      69
CTETRA     10356       1      33     878      35      34
CTETRA     10357       1    1605    1912    2578    2155
CTETRA     10358       1    2962    5743    4084    4067
CTETRA     10359       1    1511    1906    1851     325
CTETRA     10360       1    2660    4502    4526    4501
CTETRA     10361       1    1709    1687    1690    1708
CTETRA     10362       1    2660    5797    4502    4060
CTETRA     10363       1    1605    1688    2155    2578
CTETRA     10364       1    3008    4222    4205    4066
CTETRA     10365       1     156     891     537     152
CTETRA     10366       1    3036    4067    4205    5744
CTETRA     10367       1    1851    1854    1709    1687
CTETRA     10368       1    2660    4094    4526    5797
CTETRA     10369       1    1686    1688    1687    1690
CTETRA     10370       1    3012     158    2970    3265
CTETRA     10371       1     414     474    1133    1134
CTETRA     10372       1    1378     415    2218    2221
CTETRA     10373       1     216    2017     214    1234
CTETRA     10374       1    1236    1684     418     696
CTETRA     10375       1     417     981    1322      20
CTETRA     10376       1      36      35      33    2080
CTETRA     10377       1     413     701     700    2220
CTETRA     10378       1    1315     469    2221     994
CTETRA     10379       1    2120     472     473     470
CTETRA     10380       1     469     415    1378    2221
CTETRA     10381       1     481    1344    1569    1295
CTETRA     10382       1    1591    1569    2591    1746
CTETRA     10383       1    2660    4501    2659    4502
CTETRA     10384       1     838     730     269     732
CTETRA     10385       1     682     685    1278     660
CTETRA     10386       1    1894    2740    4872    4871
CTETRA     10387       1     709    2297    2704    2296
CTETRA     10388       1     152     156     627     537
CTETRA     10389       1    1569     497     488    1042
CTETRA     10390       1    3719    5747    5746    4207
CTETRA     10391       1    1289    2886    1291    1295
CTETRA     10392       1    3076    4209    4208    4225
CTETRA     10393       1    3689    5745    4206    5746
CTETRA     10394       1    1286    1295    1289    1291
CTETRA     10395       1    1529    4234    4233    4231
CTETRA     10396       1    2443    4223    4222    4221
CTETRA     10397       1    1969    4205    4222    4206
CTETRA     10398       1    2887     271    1745     272
CTETRA     10399       1    2353    4107    4106    4119
CTETRA     10400       1     744    4062    4218    4219
CTETRA     10401       1    1812    4120    4109    4108
CTETRA     10402       1    2389    4106    4105    4118
CTETRA     10403       1     729     394    2882    2692
CTETRA     10404       1    1905    2525    2430    2459
CTETRA     10405       1    1563    1561    1790    2070
CTETRA     10406       1    1819    2525    2459    2540
CTETRA     10407       1    2683    2083    3987    3921
CTETRA     10408       1    1819    2436    2525    2540
CTETRA     10409       1    1557    1584     497    1035
CTETRA     10410       1    1909    1903    1819    2525
CTETRA     10411       1    1812    4109    4120    4121
CTETRA     10412       1    1819    2525    2436    1574
CTETRA     10413       1     307    3077    3013    2549
CTETRA     10414       1    1584    1574    1819    1820
CTETRA     10415       1    1107    3747    3793    3748
CTETRA     10416       1      10     208      15      24
CTETRA     10417       1    3689    5746    4206    4207
CTETRA     10418       1     883     885     960     940
CTETRA     10419       1    3076    5748    4208    4209
CTETRA     10420       1      14     201     210    1856
CTETRA     10421       1     641     655     647     646
CTETRA     10422       1     282      12     279     280
CTETRA     10423       1    1238     857    1240    1110
CTETRA     10424       1     217     228    1314     223
CTETRA     10425       1     219    1369    1080    1885
CTETRA     10426       1    1231    1217     215    1234
CTETRA     10427       1    1231    2244    1105    1104
CTETRA     10428       1     413     416     415     994
CTETRA     10429       1     753    1134      23    2286
CTETRA     10430       1    2244    2851    1105    1104
CTETRA     10431       1     342    1105    2187    2328
CTETRA     10432       1    3014    4212    4211    4227
CTETRA     10433       1    1133    1235    1217    1234
CTETRA     10434       1    1133    1234     474    1235
CTETRA     10435       1    2244    2458     752    2332
CTETRA     10436       1    1970    4207    4206    4223
CTETRA     10437       1    2657    4208    4207    4224
CTETRA     10438       1    2019    2970    2082    5062
CTETRA     10439       1    2272    2458    2273    1134
CTETRA     10440       1    1630    1632    2758      86
CTETRA     10441       1    2433    2551    1124    4090
CTETRA     10442       1    2909    4110    4112    4111
CTETRA     10443       1    2426    4096    4095    4112
CTETRA     10444       1     998    3690    3725    3691
CTETRA     10445       1    3007    3692    3732    3693
CTETRA     10446       1    2731    4113    4096    4112
CTETRA     10447       1    3042     140    2809    1188
CTETRA     10448       1    3042    4417    1188    2809
CTETRA     10449       1    2941    4063    4110    4062
CTETRA     10450       1    3007    3692    3731    3732
CTETRA     10451       1    1543     779    2999     768
CTETRA     10452       1     768    1543    2803    2999
CTETRA     10453       1      36    4065    2351      34
CTETRA     10454       1    3029    4566    4567    4569
CTETRA     10455       1     915    2432    4450    4449
CTETRA     10456       1     506    2916     510     509
CTETRA     10457       1    1158    4509    3077    1895
CTETRA     10458       1    3008    4222    4066    4065
CTETRA     10459       1    2767    3716    3692    3710
CTETRA     10460       1     806    2847    2371    3078
CTETRA     10461       1     806    1721    3078    2372
CTETRA     10462       1    1047    1671    1293    1292
CTETRA     10463       1    1047    1671    1292    1049
CTETRA     10464       1    4523    4522    2910    3013
CTETRA     10465       1    1056    1671    1047    1049
CTETRA     10466       1    1639    1051     422      87
CTETRA     10467       1    1051     252     422    1052
CTETRA     10468       1    1046    1055    1056    1049
CTETRA     10469       1    1896    2942    1990    1899
CTETRA     10470       1    1900    1899     220    1898
CTETRA     10471       1     228    1322     230     217
CTETRA     10472       1     109    2714    2378     410
CTETRA     10473       1     109    3020    2313    2735
CTETRA     10474       1    3020    2310    2944    3021
CTETRA     10475       1    2536    2734    3172    3173
CTETRA     10476       1    2735     109     410    2536
CTETRA     10477       1    1808     109    3021    2310
CTETRA     10478       1    3007    3731    3739    3732
CTETRA     10479       1    2941    4062    4110    4111
CTETRA     10480       1    2850    3007    3739    2391
CTETRA     10481       1    4063      34    1812    4064
CTETRA     10482       1    2492    3727    2494    3726
CTETRA     10483       1    2943    4506    4516    4505
CTETRA     10484       1    2079    2449    2878     998
CTETRA     10485       1    2536     109    2146    2307
CTETRA     10486       1      36    4221    4065    4064
CTETRA     10487       1    2300     911    2302    4499
CTETRA     10488       1    2797    2798     297    2557
CTETRA     10489       1    2401    3079    4525    2787
CTETRA     10490       1    1114    2361    4169     914
CTETRA     10491       1    2307    2146    2306     109
CTETRA     10492       1    1284    1285    3745    1336
CTETRA     10493       1    1239     359     358     360
CTETRA     10494       1    2449    3724    3725    3722
CTETRA     10495       1    2547    4220    4064    4063
CTETRA     10496       1    2390    3693    3732    3733
CTETRA     10497       1    1871    1316    2183    1502
CTETRA     10498       1     828    1307    1836    2020
CTETRA     10499       1    1834    2021    1082    2417
CTETRA     10500       1    1834    1962    1369    1700
CTETRA     10501       1    2190     356     556     355
CTETRA     10502       1    2022    1963    1966    2761
CTETRA     10503       1    2548    4221    4232    4223
CTETRA     10504       1     360     359    1698    1307
CTETRA     10505       1    1616     910    3005     384
CTETRA     10506       1    2284    2153     103     667
CTETRA     10507       1    2909    4110    4121    4112
CTETRA     10508       1      88    1671    1056    2249
CTETRA     10509       1     999    3716    3691    3692
CTETRA     10510       1    2186    4218    4217    4230
CTETRA     10511       1     553    2529    2769    2262
CTETRA     10512       1    2152     423     651    1050
CTETRA     10513       1     274    2153     104     105
CTETRA     10514       1    1123    4072    4091    4092
CTETRA     10515       1    1616    2379    2556    2789
CTETRA     10516       1     428    2416     425     250
CTETRA     10517       1     916    2401    2787    3079
CTETRA     10518       1    2153     423     683     667
CTETRA     10519       1      34    4108    4064    4065
CTETRA     10520       1     683    2153     274     423
CTETRA     10521       1    2153     426    1345     105
CTETRA     10522       1    2449    3724    3730    3725
CTETRA     10523       1     429     426     274     105
CTETRA     10524       1    1015    1590    1744    1223
CTETRA     10525       1    2548    4232    4221    4220
CTETRA     10526       1    2401    2426    4527    4095
CTETRA     10527       1    1172    2939    1184     583
CTETRA     10528       1    2345    4505    4504    4529
CTETRA     10529       1    1555    1382    2780    1380
CTETRA     10530       1    1555    2939    1379    1380
CTETRA     10531       1    1184    1186     236     579
CTETRA     10532       1     671     668     669     672
CTETRA     10533       1    1428    1019    1661    1429
CTETRA     10534       1    1590    1382    2780    1555
CTETRA     10535       1    1032    1033    1904     498
CTETRA     10536       1    2433     912    1124    2551
CTETRA     10537       1    1631    1470    2733    1632
CTETRA     10538       1    2657    4224    4225    4208
CTETRA     10539       1    2580    4186    5750    4199
CTETRA     10540       1    2580    4186    4199    4200
CTETRA     10541       1    1223    1555    1029    1590
CTETRA     10542       1    2657    4224    4233    4225
CTETRA     10543       1    1970    4232    4233    4224
CTETRA     10544       1    1339    4209    4225    4210
CTETRA     10545       1    1231    1220     215    1217
CTETRA     10546       1    1106    1104    1107    2274
CTETRA     10547       1    1791    1104    1106    2274
CTETRA     10548       1     755    4229    4216    4228
CTETRA     10549       1    1683    1237    1916    1684
CTETRA     10550       1     774    1219    1215    1214
CTETRA     10551       1     547    2766     999    3007
CTETRA     10552       1    1215     772     773     774
CTETRA     10553       1    1114    4449     915    4512
CTETRA     10554       1    2432    4871    4870    5003
CTETRA     10555       1    1068    1157    2432    1158
CTETRA     10556       1    1299    1757    1758    1285
CTETRA     10557       1    1757    1756    1102      58
CTETRA     10558       1    3019    4547    4544    4543
CTETRA     10559       1    1162    2433    1895     913
CTETRA     10560       1    1236    2503    1759    1831
CTETRA     10561       1    1124    4091    4090    4101
CTETRA     10562       1    1133    1237    1220    1219
CTETRA     10563       1    2797    2557    4115    4116
CTETRA     10564       1     913    4512    5790    4170
CTETRA     10565       1    2798     297    2557     309
CTETRA     10566       1    3071    2501    2504    4490
CTETRA     10567       1    2797    2790    4115    2557
CTETRA     10568       1    2877    3051    4190    4216
CTETRA     10569       1    1284    3680    3745    3681
CTETRA     10570       1    1529    4233    4232    4231
CTETRA     10571       1    1009    2912     382    2357
CTETRA     10572       1    2793    2797    2790    4123
CTETRA     10573       1    2797    4118    2798    4116
CTETRA     10574       1    2793    4120    4123    4122
CTETRA     10575       1    2797    2798    4118    2263
CTETRA     10576       1    3024     576    4553    4542
CTETRA     10577       1    2186    4219    4218    4230
CTETRA     10578       1    2124    1916    2874    2121
CTETRA     10579       1     755    4217    4216    4229
CTETRA     10580       1    1114    2361    4171    4169
CTETRA     10581       1     911    4535    4498    4499
CTETRA     10582       1    2390    2391    3733    3732
CTETRA     10583       1    1114    4512    4170    5789
CTETRA     10584       1    1234    1235     216    2017
CTETRA     10585       1    1236    2503    1235     416
CTETRA     10586       1    2661    5798    4555    4194
CTETRA     10587       1    1114     914     913     915
CTETRA     10588       1    1217    1234     216     215
CTETRA     10589       1    1217    1312    1218    2501
CTETRA     10590       1    1133    1134     474    1232
CTETRA     10591       1    4509    4510    1895    1158
CTETRA     10592       1    2379    4519    2550    2789
CTETRA     10593       1    2790    4122    4114    4113
CTETRA     10594       1    1158    4509    4450    4451
CTETRA     10595       1    1338    4209    4199    5749
CTETRA     10596       1     310    2264    1073     309
CTETRA     10597       1    1114    4512     913    4170
CTETRA     10598       1    1530    4234    4226    4233
CTETRA     10599       1    1301    4199    4210    4200
CTETRA     10600       1    1339    4210    4225    4226
CTETRA     10601       1    1162    4099    2551    4089
CTETRA     10602       1     610    2031    2576    2137
CTETRA     10603       1     610    2031    2177    2576
CTETRA     10604       1    1682    1399    1668     605
CTETRA     10605       1     606    2165    2576    2168
CTETRA     10606       1    1300    4185    4200    4201
CTETRA     10607       1    1668    1399    2858    2165
CTETRA     10608       1    1301    4200    4210    4211
CTETRA     10609       1     995    2219     994    1316
CTETRA     10610       1    2236    1802    2777    2402
CTETRA     10611       1    3679    4199    5750    5749
CTETRA     10612       1    1423    1843    2236    2777
CTETRA     10613       1    2545    1115     843     844
CTETRA     10614       1    1899     254    2215     229
CTETRA     10615       1    2777    2778    2408    2409
CTETRA     10616       1    1136    1218    4581    2727
CTETRA     10617       1    1350    4593    4609    4610
CTETRA     10618       1    3026    2384    4160    4161
CTETRA     10619       1    1422    1613     256     254
CTETRA     10620       1     232    1464    2757     979
CTETRA     10621       1     221     995    1316    2219
CTETRA     10622       1     698     230    2425    2695
CTETRA     10623       1    2874    3765    3775    3766
CTETRA     10624       1     787    1008    1006    1221
CTETRA     10625       1    1844    1007    1998    1468
CTETRA     10626       1    1878     593    1730     594
CTETRA     10627       1     182    2001    1878    2915
CTETRA     10628       1    1027    1025    2744    1006
CTETRA     10629       1     914    4074    1124    4073
CTETRA     10630       1    2558    4098    4088    5792
CTETRA     10631       1    1012    1748    1749     441
CTETRA     10632       1    1006    1998    1393    2744
CTETRA     10633       1      27      29      31     557
CTETRA     10634       1      29      37    1395      28
CTETRA     10635       1    4511    4088    5791    5792
CTETRA     10636       1    1392    1393    1006    1998
CTETRA     10637       1    2557    4114    4115    4099
CTETRA     10638       1     913    4514    4512    4513
CTETRA     10639       1    1997     257     787     786
CTETRA     10640       1    2798    4118    4105    4117
CTETRA     10641       1    2583    1900    5393    5389
CTETRA     10642       1    1471    3687    3728    3735
CTETRA     10643       1    3026    4161    1515    2384
CTETRA     10644       1    3077    3013    2549    4523
CTETRA     10645       1     428    1008    1207    1027
CTETRA     10646       1    2557    4100    4099    4115
CTETRA     10647       1     787    1008    1221    1207
CTETRA     10648       1    1530    4234    4227    4226
CTETRA     10649       1    1221    1025    1207    1027
CTETRA     10650       1    2271      37    1025    1948
CTETRA     10651       1    1948    1207      37    1025
CTETRA     10652       1    2872    3755    3757    3754
CTETRA     10653       1    1829    1830    4203    4204
CTETRA     10654       1    1008    1006    1221    1027
CTETRA     10655       1    2580    4185    4186    4200
CTETRA     10656       1    1684    1830     980    1827
CTETRA     10657       1    1738    2107    2764    2425
CTETRA     10658       1    1284    3745    3680    3744
CTETRA     10659       1    1611    2387    2423     255
CTETRA     10660       1    3743    5751    5750    4186
CTETRA     10661       1    1422    1801    1551    1612
CTETRA     10662       1     254    1460    1477    1476
CTETRA     10663       1    1599    4186    4281    5751
CTETRA     10664       1    1244    4275    4283    4280
CTETRA     10665       1    1338    4199    4209    4210
CTETRA     10666       1     254    1477     963    3044
CTETRA     10667       1    2458    2016    3782    3772
CTETRA     10668       1    2469    4211    4226    4227
CTETRA     10669       1     229    1896    1990    1899
CTETRA     10670       1    3706    2368    3708    3707
CTETRA     10671       1    1638    3044     254    1628
CTETRA     10672       1    2263    4118    4123    4119
CTETRA     10673       1    2600    4277    4288    4237
CTETRA     10674       1     229    1899    1990    2215
CTETRA     10675       1     253    1638     254     256
CTETRA     10676       1    1273     845    1276    2422
CTETRA     10677       1    1276    1277    2422     845
CTETRA     10678       1    2277    1276    1277    2422
CTETRA     10679       1    2551    4089    4100    4090
CTETRA     10680       1     963    5406    1477    5407
CTETRA     10681       1    1499    1424    1498     948
CTETRA     10682       1    2265    2630    2798    2389
CTETRA     10683       1    4189    4214    4188    2581
CTETRA     10684       1    3747    2470    2274    3746
CTETRA     10685       1    1346    2344    1350    4592
CTETRA     10686       1     698     228    1322     230
CTETRA     10687       1     221    2219    1868    2224
CTETRA     10688       1    3067    3837    3829    3833
CTETRA     10689       1    1114    4448    1115    4449
CTETRA     10690       1    1162    4089    4088    4099
CTETRA     10691       1     225    1896    1736    1738
CTETRA     10692       1    2106    1738    2107    1737
CTETRA     10693       1     963    1477    5406    3044
CTETRA     10694       1    2429    1253    1229    2785
CTETRA     10695       1      22    2285     749    2013
CTETRA     10696       1     717     542     545    2422
CTETRA     10697       1    1307    2322    1242    1698
CTETRA     10698       1     242    3868    3869    3824
CTETRA     10699       1    2798    4117    4116    4118
CTETRA     10700       1    2551    4116    4101    4100
CTETRA     10701       1    1900    1897    5401    1899
CTETRA     10702       1    4868    4167    5787    5788
CTETRA     10703       1    1838    2822    1762    2959
CTETRA     10704       1     354     466    1702     360
CTETRA     10705       1    2557    4116    4100    4115
CTETRA     10706       1     464     466     360    1697
CTETRA     10707       1    2731    2732    2790    4113
CTETRA     10708       1      61     910     877    1637
CTETRA     10709       1    1728      79      75     506
CTETRA     10710       1    1244    4281    4185    4280
CTETRA     10711       1     508     507     694     511
CTETRA     10712       1    1336    3744    3767    3745
CTETRA     10713       1    3026    3924    4161    5734
CTETRA     10714       1    1335    3755    3754    3767
CTETRA     10715       1     767     769     779     768
CTETRA     10716       1     510    2917    1964    1965
CTETRA     10717       1    1964     510     117     505
CTETRA     10718       1    3014    4228    4212    4227
CTETRA     10719       1      82      79    3054    2917
CTETRA     10720       1     123     118     110     512
CTETRA     10721       1    1255    3513    1254    2682
CTETRA     10722       1    2434    2224    1842    4670
CTETRA     10723       1    3080    3757    3482    3754
CTETRA     10724       1     114    1212    1722     121
CTETRA     10725       1      79     505    2917      82
CTETRA     10726       1      88    1861    2249    1056
CTETRA     10727       1     817     633     664     663
CTETRA     10728       1    3756    5751    4281    5752
CTETRA     10729       1     633     817     424     425
CTETRA     10730       1    1633    3737    2850    2878
CTETRA     10731       1    4189    2565    2581    4198
CTETRA     10732       1     274     424     425     632
CTETRA     10733       1     249     263     265     250
CTETRA     10734       1     265     425     817    2518
CTETRA     10735       1    1900    2587    5390    5401
CTETRA     10736       1    1830    4204    4182    4203
CTETRA     10737       1    1828    4213    4202    4212
CTETRA     10738       1     265     424     817     425
CTETRA     10739       1     249     265     425     250
CTETRA     10740       1     982    3459    3458    3460
CTETRA     10741       1    2036    3262    3263    3280
CTETRA     10742       1     484    3899    3926    3927
CTETRA     10743       1    5052     375    5095     390
CTETRA     10744       1    2036    3280    3271    3262
CTETRA     10745       1    1993    3268    3269    3267
CTETRA     10746       1     928    3944    3937    3936
CTETRA     10747       1    2433    4089    4074    4075
CTETRA     10748       1    1585    1496    4257    4260
CTETRA     10749       1    1585    4257    4258    4259
CTETRA     10750       1    1264    1261     407    1003
CTETRA     10751       1     400     196     957    2932
CTETRA     10752       1     400    2760    2213     397
CTETRA     10753       1     399     403     400     398
CTETRA     10754       1     942     400    2932     196
CTETRA     10755       1     178       3    1942     181
CTETRA     10756       1     401    1001    1264    1003
CTETRA     10757       1     843    4869    4868    5001
CTETRA     10758       1    2432    4450    4449    4870
CTETRA     10759       1    1003    2855    1261    2161
CTETRA     10760       1     935      68     585    1875
CTETRA     10761       1    2551    4099    4100    4089
CTETRA     10762       1      68      69      67     585
CTETRA     10763       1    3006     997    3036    3008
CTETRA     10764       1    1600    4201    4184    4185
CTETRA     10765       1     585      68      69    2802
CTETRA     10766       1    1859     694     507     511
CTETRA     10767       1    3026    2681    3923    3897
CTETRA     10768       1    4284     974    2606    4182
CTETRA     10769       1    3080    2693    3517    3482
CTETRA     10770       1    1600    4202    4184    4201
CTETRA     10771       1    2273    2458    3773    3479
CTETRA     10772       1    1670    2248    2249    1677
CTETRA     10773       1    1828    4212    4202    4201
CTETRA     10774       1    1827    4183    4275    4184
CTETRA     10775       1    1670    1672    1049    1674
CTETRA     10776       1    1048    2475    1047    1953
CTETRA     10777       1      87    1953     822     785
CTETRA     10778       1    1860    1677    2249    2248
CTETRA     10779       1    1670    1677    1681    1675
CTETRA     10780       1    1827    4183    4184    4202
CTETRA     10781       1    2850    1633     880    2733
CTETRA     10782       1    1671    1049    1672    1292
CTETRA     10783       1    1047    1049    1292    2475
CTETRA     10784       1    4082    2867    4069    4068
CTETRA     10785       1     434     435     984     167
CTETRA     10786       1    1748     441     984    1093
CTETRA     10787       1    3075     436     983    2046
CTETRA     10788       1    3075    2136    2516    2046
CTETRA     10789       1    2551    4101    4090    4100
CTETRA     10790       1     933    1454     890    2995
CTETRA     10791       1    2617    4093    4092    4103
CTETRA     10792       1    1896    1900    2583    2942
CTETRA     10793       1    1879    2046    2516    2136
CTETRA     10794       1    2628    4117    4104    4102
CTETRA     10795       1    2136    1751     760    2516
CTETRA     10796       1     180     868     438     990
CTETRA     10797       1    2581    4188    4196    4187
CTETRA     10798       1    2515     436    3075    2046
CTETRA     10799       1    1736    2586    2584    2583
CTETRA     10800       1    1830    4182    4183    4203
CTETRA     10801       1    1513     933    1516    2384
CTETRA     10802       1    2785    2600    4277    1230
CTETRA     10803       1    2384    2681     920     921
CTETRA     10804       1     921    1485     922    4129
CTETRA     10805       1     921    4129    2384    1486
CTETRA     10806       1     697     981      21    2982
CTETRA     10807       1    1335    1333    2122    1916
CTETRA     10808       1    1791    2274    1106    2122
CTETRA     10809       1    1916    1335    2874    2122
CTETRA     10810       1     548     547    3006     999
CTETRA     10811       1    1124    4090    4073    4074
CTETRA     10812       1     878      35      55      33
CTETRA     10813       1     548     880    2850    2878
CTETRA     10814       1    2666     920    2889    4156
CTETRA     10815       1    1125    4102    4091    4101
CTETRA     10816       1    3077    4523    4509    4451
CTETRA     10817       1    1894    4451    4871    4872
CTETRA     10818       1     655     207    2334    2109
CTETRA     10819       1    1945     209     655    1002
CTETRA     10820       1    1845     622    1844    1209
CTETRA     10821       1      18     207    2335    2117
CTETRA     10822       1    2502    4612    4630    4613
CTETRA     10823       1     979     698     978    2695
CTETRA     10824       1    1243    3484    5753    4278
CTETRA     10825       1    1464    2757     979    1252
CTETRA     10826       1    2810    2117    1945    1946
CTETRA     10827       1      14    1002      17    1856
CTETRA     10828       1     212      15      12     883
CTETRA     10829       1     989    2257    2258    1881
CTETRA     10830       1    3834    5738    5737    4082
CTETRA     10831       1     128     131     867    2259
CTETRA     10832       1    2583    2942    5389    5392
CTETRA     10833       1    2502    4596    4612    4613
CTETRA     10834       1    4285    1615    1827    4275
CTETRA     10835       1     129     268     128     867
CTETRA     10836       1       1       5       4       7
CTETRA     10837       1       4     128     989     988
CTETRA     10838       1    4610    4628    4627     472
CTETRA     10839       1     258     367     795     794
CTETRA     10840       1     786     951     788     796
CTETRA     10841       1    1827    4183    4202    4203
CTETRA     10842       1     788     785    1540    1953
CTETRA     10843       1    2694    3518    2382    3519
CTETRA     10844       1     794     797    1846    2633
CTETRA     10845       1    1157     915    1115    2432
CTETRA     10846       1    1305    1408    1304    1409
CTETRA     10847       1    5848    5847    3503    5343
CTETRA     10848       1     795    1409     951    1408
CTETRA     10849       1     951    1304    2477    1408
CTETRA     10850       1    2933    2818    3503    5343
CTETRA     10851       1     118      81     822     618
CTETRA     10852       1     952    2242     951    2477
CTETRA     10853       1    1447    1442    2918    2415
CTETRA     10854       1    1447    2397    2919    2991
CTETRA     10855       1    1447    2397    2991    2514
CTETRA     10856       1    1368    5462    1377    5463
CTETRA     10857       1    2268    2269    1373    1374
CTETRA     10858       1    5462    1373    5461    1368
CTETRA     10859       1    2268    1374    1366    2393
CTETRA     10860       1    2065    3836    3837    3675
CTETRA     10861       1    1375    1366    2745    5416
CTETRA     10862       1    2834    3830    3831    3835
CTETRA     10863       1    2663    4070    4071    4093
CTETRA     10864       1    1366    5416    1367    2745
CTETRA     10865       1    2255    1752    1366    2365
CTETRA     10866       1    1375    1366    1752    2745
CTETRA     10867       1    1229    4279    4278    4283
CTETRA     10868       1    1116    4172    2360    4165
CTETRA     10869       1    1244    4283    4282    4280
CTETRA     10870       1    2229    5480    2445    5479
CTETRA     10871       1    1230    4276    4277    4279
CTETRA     10872       1    2906    4250    4235    4236
CTETRA     10873       1     715    2990    3067    2834
CTETRA     10874       1    1480    2254    2342    1481
CTETRA     10875       1    1465    2092    1365    1482
CTETRA     10876       1    1483    2342    2508    2509
CTETRA     10877       1    1363     163    1483    2508
CTETRA     10878       1    1114    5789    4170    4171
CTETRA     10879       1    2253    1365    2092    2097
CTETRA     10880       1     541    1022     409    2146
CTETRA     10881       1    5486    1377    5509    5485
CTETRA     10882       1    2437    3829    3874    3830
CTETRA     10883       1    2439    3894    3921    3895
CTETRA     10884       1     845    5001    5022    5002
CTETRA     10885       1    2252    2643    2670    2722
CTETRA     10886       1    1373    5484    2618    5485
CTETRA     10887       1    2223    4631    4649    4650
CTETRA     10888       1    2361    1159    4164    4169
CTETRA     10889       1    2582    4187    4181    4204
CTETRA     10890       1    4305    3454    5779    3453
CTETRA     10891       1    2269    2349    1374    2268
CTETRA     10892       1    1368    1366    1376    1373
CTETRA     10893       1    2213     957     483    2932
CTETRA     10894       1    2157    3461    1994    2613
CTETRA     10895       1    1973    1857    1716    2116
CTETRA     10896       1    2112    1857    1716    1973
CTETRA     10897       1    2361    4171    4169    4172
CTETRA     10898       1    2110    2111    4676    4476
CTETRA     10899       1     313     885    2945     882
CTETRA     10900       1    2112    4725    1973    2922
CTETRA     10901       1    4727    2519    4676    2112
CTETRA     10902       1     718    1117    2360    2546
CTETRA     10903       1    2361    4172    4169    4164
CTETRA     10904       1    2594    4631    4614    4613
CTETRA     10905       1    2413    2112    4724    4677
CTETRA     10906       1    4613    4630    2502    4631
CTETRA     10907       1    4697    2119    2066    2067
CTETRA     10908       1    1713    1716    2112    1857
CTETRA     10909       1    1669    2740    2432     844
CTETRA     10910       1    3080    3482    3517    3481
CTETRA     10911       1     117     510    1964     771
CTETRA     10912       1    2761    1755    1815     830
CTETRA     10913       1    1230    4277    4276    4287
CTETRA     10914       1    1308     860    2410    3061
CTETRA     10915       1    1308    1311    2410     860
CTETRA     10916       1    2406    1311    1725     862
CTETRA     10917       1    2914    3666    3850    3667
CTETRA     10918       1    1121    3784    3786    3785
CTETRA     10919       1    2507    5132    5133    5120
CTETRA     10920       1    2430    5145    5148    5149
CTETRA     10921       1     188    3203    3105    3104
CTETRA     10922       1    1311     862    2406     825
CTETRA     10923       1    2406    1311     860    2410
CTETRA     10924       1    5158    3039    2925    5029
CTETRA     10925       1    1309    1310    2615    1311
CTETRA     10926       1    1590    1744    1223    2780
CTETRA     10927       1    2907    3822    3845    3847
CTETRA     10928       1    2615    2411    2929    1311
CTETRA     10929       1     358    1815    1755     830
CTETRA     10930       1    1513    1515    4130    2384
CTETRA     10931       1    1065    4027    4030    4031
CTETRA     10932       1    2571    3169    3103    3180
CTETRA     10933       1    1030    4019    4018    4026
CTETRA     10934       1    3195    5150    5664    5663
CTETRA     10935       1    2430    5148    5150    5149
CTETRA     10936       1    2459    3197    3192    3193
CTETRA     10937       1    1513    1534    4133    4130
CTETRA     10938       1    1513    1516     933    1514
CTETRA     10939       1    3039    5158    5030    5029
CTETRA     10940       1    1513    4133    1534    1510
CTETRA     10941       1    1513     933    2645    1514
CTETRA     10942       1    1513    1510    1514    2645
CTETRA     10943       1    1028    1063    1066    1224
CTETRA     10944       1    2030     325     326    2209
CTETRA     10945       1     534    5084    5083    5100
CTETRA     10946       1    1586    3239    3238    3251
CTETRA     10947       1     126     531     866     529
CTETRA     10948       1    2353    4119    2263    2370
CTETRA     10949       1    2465    5107    5102    5103
CTETRA     10950       1    1184     581     583    2939
CTETRA     10951       1    2185    3937    3938    3931
CTETRA     10952       1    1571    3191    3199    3190
CTETRA     10953       1     319     325    2030    1906
CTETRA     10954       1    2030     326     318    2490
CTETRA     10955       1    1579    1181    1341    2465
CTETRA     10956       1       9       5       7     870
CTETRA     10957       1    2979     801    4458    4549
CTETRA     10958       1    2711    3026    3897    2681
CTETRA     10959       1    1712    1303     609    2058
CTETRA     10960       1     673    1033     672    1904
CTETRA     10961       1    2457    3999    4010    4000
CTETRA     10962       1     675    4027    4023    4022
CTETRA     10963       1    3242    5662    5106    3194
CTETRA     10964       1    2612    1303    2058    2741
CTETRA     10965       1    3026    3897    3924    5734
CTETRA     10966       1    2830    5136    5137    5130
CTETRA     10967       1     151    2036    2035     158
CTETRA     10968       1    3057    2972    5342    5338
CTETRA     10969       1    2459    3192    3197    3198
CTETRA     10970       1    1362    5583    5582    5606
CTETRA     10971       1    2926    3450    4297    3454
CTETRA     10972       1    2226    4308    4307    4310
CTETRA     10973       1    1362    5718    1359    1357
CTETRA     10974       1    2088    4350    4344    4343
CTETRA     10975       1    1850    2923    1059    2471
CTETRA     10976       1     898     899    2028     893
CTETRA     10977       1    1257    4781    4782    4776
CTETRA     10978       1    2036     898    2035    2037
CTETRA     10979       1    5232    5855    3590    3595
CTETRA     10980       1     898     895     901     899
CTETRA     10981       1    1553    2621     721    2791
CTETRA     10982       1    1022    1822    2144    2146
CTETRA     10983       1    1673    5244    1674    1675
CTETRA     10984       1     829    2590    2039    2761
CTETRA     10985       1     888     541     108    2309
CTETRA     10986       1     490     491    3594    3596
CTETRA     10987       1    3582    3061    3023    3543
CTETRA     10988       1    2998    1822    2935    3157
CTETRA     10989       1    2531    2962    2530    2352
CTETRA     10990       1    2077    5222    5209    5252
CTETRA     10991       1     355    2190    4696    2119
CTETRA     10992       1     470     473    2119    2066
CTETRA     10993       1    3566    5856    5229    5857
CTETRA     10994       1     108    2309     409     109
CTETRA     10995       1    2266    2918    5207    5206
CTETRA     10996       1     889    1391    2975    1810
CTETRA     10997       1    1208    5252    2246    5223
CTETRA     10998       1    1523    5243    5247    5249
CTETRA     10999       1    1023    2854    1581    2129
CTETRA     11000       1    2248    2844    5260    5261
CTETRA     11001       1    2816    5330    5211    5317
CTETRA     11002       1     509    1725    2803    1310
CTETRA     11003       1     717     322    2422     320
CTETRA     11004       1    2554    1449    2552     545
CTETRA     11005       1    1257    4782    4777    4776
CTETRA     11006       1     102     109    3021    1808
CTETRA     11007       1    2385    3701    3702    3700
CTETRA     11008       1    1823    1022    1018    1023
CTETRA     11009       1    1524    5243    5249    5242
CTETRA     11010       1    1523    4764    4761    4763
CTETRA     11011       1    1674    5243    5256    5244
CTETRA     11012       1     327     278     934     584
CTETRA     11013       1     132     318     283     131
CTETRA     11014       1    3081     954    1939     283
CTETRA     11015       1    2839    1729    1728      78
CTETRA     11016       1    2247    5260    5224    5259
CTETRA     11017       1    2818    3502    2738    3503
CTETRA     11018       1     953     867     283     954
CTETRA     11019       1    4745     619    2241    4739
CTETRA     11020       1     260    5290    5291    5266
CTETRA     11021       1    2571    3180    3170    3169
CTETRA     11022       1    4032    2665    3982    2130
CTETRA     11023       1    1905    1877    2459    2430
CTETRA     11024       1    1572    3192    3198    3191
CTETRA     11025       1     226    3102    3227    2646
CTETRA     11026       1     268     954     953     960
CTETRA     11027       1    1057    4024    3143    5641
CTETRA     11028       1     938     940     267     944
CTETRA     11029       1    1405    1404     944     324
CTETRA     11030       1    1507    1888    1901    1887
CTETRA     11031       1    2525    1574    2512    2436
CTETRA     11032       1    1887     544     543    1228
CTETRA     11033       1    2646    3228    3103    3227
CTETRA     11034       1    1887     661     929     928
CTETRA     11035       1     388     983     389     436
CTETRA     11036       1     536     388    1626     535
CTETRA     11037       1    2780    1744    4011    4001
CTETRA     11038       1    1030    4027    4022    4026
CTETRA     11039       1     188    3104    2646    3228
CTETRA     11040       1    1066    4020    4018    4021
CTETRA     11041       1    3057    1179    3486    3485
CTETRA     11042       1    2539    3211    3205    3206
CTETRA     11043       1    1888    1901    1567    1507
CTETRA     11044       1     984     164     791    2460
CTETRA     11045       1     553    2769    2368    2768
CTETRA     11046       1     169     170     172     662
CTETRA     11047       1     169     171     168     665
CTETRA     11048       1    1030    4019    4022    4014
CTETRA     11049       1    1040    3215    3223    3200
CTETRA     11050       1    1036    4004    3998    4006
CTETRA     11051       1    1572    3230    3199    3198
CTETRA     11052       1    2818    2819    2738    1182
CTETRA     11053       1    1063    4013    4003    4021
CTETRA     11054       1    2289    5031    5032    5011
CTETRA     11055       1    3057    3486    1179    1182
CTETRA     11056       1    1797     586     538     521
CTETRA     11057       1    2846    4598    4492    4597
CTETRA     11058       1    2434    4671    4651    4670
CTETRA     11059       1     585    1875      68    2953
CTETRA     11060       1    2829    3216    3230    3234
CTETRA     11061       1     675    1223    1030    2721
CTETRA     11062       1    1224    4019    4013    4021
CTETRA     11063       1    2859    3233    3232    3231
CTETRA     11064       1    4014    4011    1223    4010
CTETRA     11065       1    3222    5638    5639    4020
CTETRA     11066       1     324     327     278     944
CTETRA     11067       1    1168    5098    5121    5102
CTETRA     11068       1    1020    1661    1589    2377
CTETRA     11069       1    1222    3229    3233    3234
CTETRA     11070       1    1659     227    2859    3204
CTETRA     11071       1    1663    5146    5137    5136
CTETRA     11072       1      68    2427      66    2605
CTETRA     11073       1    1875      68    2930    2605
CTETRA     11074       1    1041    2823    3215    1040
CTETRA     11075       1    3102    1044    3218    3101
CTETRA     11076       1    1222    3231    3217    3234
CTETRA     11077       1    1875      68    2953    2930
CTETRA     11078       1     226    3232    3227    3231
CTETRA     11079       1    2954    1067    3221    3222
CTETRA     11080       1    4005    2720    1041    1037
CTETRA     11081       1    1324    2340    1319    2341
CTETRA     11082       1     785    1540    1953     566
CTETRA     11083       1     251     258     951     786
CTETRA     11084       1    2444     823    2920    1213
CTETRA     11085       1    2531    3082    2962    2352
CTETRA     11086       1     249     252     263     250
CTETRA     11087       1    1051    1953      87     785
CTETRA     11088       1    1639      80     422     426
CTETRA     11089       1    4023    2217    2721    4016
CTETRA     11090       1     428     429    1008     250
CTETRA     11091       1     557     564      30    2331
CTETRA     11092       1    2152    1050     651    2283
CTETRA     11093       1    2389    2353    4106    2263
CTETRA     11094       1    3211    1657    3205    3210
CTETRA     11095       1    1222    3233    3231    3234
CTETRA     11096       1     424     274     423     683
CTETRA     11097       1    1224    1039    4014    1223
CTETRA     11098       1    1876    2830    1663    5137
CTETRA     11099       1    2539    3229    3206    3233
CTETRA     11100       1    1046    1051    1953      87
CTETRA     11101       1    2217    3978    2780    4016
CTETRA     11102       1    2859    3204    3232    3205
CTETRA     11103       1    2886    3966    3967    3972
CTETRA     11104       1     650     683     423     667
CTETRA     11105       1    1052     423     652    2132
CTETRA     11106       1    3057    2819    2972    5338
CTETRA     11107       1    3868     244    2897    3887
CTETRA     11108       1    2075    3954    3959    3948
CTETRA     11109       1     544    2898    2198    3951
CTETRA     11110       1    1790    3190    3238    3239
CTETRA     11111       1    5491    1779    5490    1777
CTETRA     11112       1    2927    3965    3993    3966
CTETRA     11113       1     551    1493     550    1778
CTETRA     11114       1    1788    1376    1487    2045
CTETRA     11115       1    1373    1376    1377    2837
CTETRA     11116       1    1488    1778    1782     550
CTETRA     11117       1    1040    2070    1790    3190
CTETRA     11118       1    1040    3199    3215    3200
CTETRA     11119       1     551     552    5470    5493
CTETRA     11120       1    2214    3997    3998    3992
CTETRA     11121       1    1073    2264    1619    1125
CTETRA     11122       1     300     306     303     766
CTETRA     11123       1    2620    2990     716    2834
CTETRA     11124       1     713     716     715    2791
CTETRA     11125       1    2818    3057    5344    2819
CTETRA     11126       1     310    2251    1619    2264
CTETRA     11127       1    1444    5209    5346    5347
CTETRA     11128       1    1389    3585    3575    3574
CTETRA     11129       1    1553    1554    2439    2791
CTETRA     11130       1     714     716    1619    2252
CTETRA     11131       1    2601    1619    2990    2670
CTETRA     11132       1    1619    2601    2990    2620
CTETRA     11133       1    4772    1192    2228    2444
CTETRA     11134       1     836     447     837    1988
CTETRA     11135       1    1176     243    1140    1988
CTETRA     11136       1     241     243    1176     244
CTETRA     11137       1    2418    2538    3625    3054
CTETRA     11138       1     766    2911     765     762
CTETRA     11139       1     822     566    2779     619
CTETRA     11140       1    1441    5222    5208    5209
CTETRA     11141       1    2247    5258    5260    5259
CTETRA     11142       1     188    3203    3104    3228
CTETRA     11143       1     300     309     299     297
CTETRA     11144       1    5150    2430    3195    5148
CTETRA     11145       1     305    1645    2638    1643
CTETRA     11146       1     707    1139    1642     712
CTETRA     11147       1    2638    1643    2768     305
CTETRA     11148       1    2823    3230    3215    3199
CTETRA     11149       1    1431    1433    1418    1556
CTETRA     11150       1    2829    3216    3220    3226
CTETRA     11151       1    1039    4013    4014    4010
CTETRA     11152       1    2749    5165    5155    5164
CTETRA     11153       1    1659    3204    3203    3228
CTETRA     11154       1    1227     305    1645    2638
CTETRA     11155       1    1789    2064    1645    1233
CTETRA     11156       1    1642    1139    1645    1233
CTETRA     11157       1     816     819     808    1270
CTETRA     11158       1    1199    1200    1955    3070
CTETRA     11159       1    1199    3055    3070    2847
CTETRA     11160       1    2820    5329    5330    5317
CTETRA     11161       1    2039    4794    4797    4798
CTETRA     11162       1    2347    4782    4788    4783
CTETRA     11163       1     148    1201     138    1200
CTETRA     11164       1     684     336    1150     678
CTETRA     11165       1     812    2355    1201    1943
CTETRA     11166       1    2352    4081    2353    4107
CTETRA     11167       1    2762    2836    2275    2794
CTETRA     11168       1     807     812    1156    1161
CTETRA     11169       1    5324    4800    4803    5876
CTETRA     11170       1    1360    4801    4803    4800
CTETRA     11171       1    2021    5321    5325    5320
CTETRA     11172       1     553    2769    2767    2368
CTETRA     11173       1    3023    3542    3584    3574
CTETRA     11174       1     847     331     731     333
CTETRA     11175       1    1227    2638     301     305
CTETRA     11176       1     301    2768     305    2638
CTETRA     11177       1    2529    2947    2262    2265
CTETRA     11178       1    2947    2739    2251    2669
CTETRA     11179       1      73    1070    2262     549
CTETRA     11180       1     310    1070    2264     309
CTETRA     11181       1    2261    3197    3229    3198
CTETRA     11182       1    2251    2262    2768    2739
CTETRA     11183       1    5156    2636    5134    5135
CTETRA     11184       1    1172    1987    3083    1176
CTETRA     11185       1    1746    2457    4000    3994
CTETRA     11186       1    2939    2897    1172    3083
CTETRA     11187       1    1184    1987    3083    1172
CTETRA     11188       1    2540    2524    2430    3194
CTETRA     11189       1    2939    2217    1555    1184
CTETRA     11190       1    3083    2939    1380    1379
CTETRA     11191       1    1381    3083    1379    1988
CTETRA     11192       1    3062    1988    3083    1381
CTETRA     11193       1    1186    1552     836    2163
CTETRA     11194       1    1382    1590    1747     271
CTETRA     11195       1    2430    2506    5138    5139
CTETRA     11196       1     233     238    3027    1174
CTETRA     11197       1    1876    2023    2831    1909
CTETRA     11198       1    1575    1204    1205    2052
CTETRA     11199       1    1789     238     789    3049
CTETRA     11200       1    2506    2526    2507    5133
CTETRA     11201       1    2524    3194    5106    5151
CTETRA     11202       1    3039    2374    2706    5030
CTETRA     11203       1    1166    1138    1249    1164
CTETRA     11204       1    2621    2663    4070    2812
CTETRA     11205       1    2558    4098    4099    4088
CTETRA     11206       1    2835    2437    3875    3831
CTETRA     11207       1    3049    1174    3027     238
CTETRA     11208       1     894     931    2033    2005
CTETRA     11209       1     238     789    3049    1175
CTETRA     11210       1    2590    4783    4794    2381
CTETRA     11211       1    1961    4805    4802    4801
CTETRA     11212       1    1725    2615    2411    3571
CTETRA     11213       1    1771    3954    1792    3958
CTETRA     11214       1    2680    5350    5349    5351
CTETRA     11215       1    1204    1205    2052     162
CTETRA     11216       1    1361    5320    5319    5355
CTETRA     11217       1    2038    1691    1692    1641
CTETRA     11218       1    1771    2073    2634    2075
CTETRA     11219       1    1641    4803    2038    4804
CTETRA     11220       1    2639    3552    3557    3556
CTETRA     11221       1    1771    3258    2634    3235
CTETRA     11222       1      91    1226    1403    1225
CTETRA     11223       1    1523    2865    1674    1524
CTETRA     11224       1    3025     757    1695    1249
CTETRA     11225       1     763     765    1225     762
CTETRA     11226       1     239     763     240     756
CTETRA     11227       1    2915    2815    2256    1881
CTETRA     11228       1    2076    5210    5211    5251
CTETRA     11229       1    1924    4787    4790    4789
CTETRA     11230       1    1693    5323    5322    5329
CTETRA     11231       1     125     119    1163    1010
CTETRA     11232       1    1771    2833    3258    3255
CTETRA     11233       1    1039    4010    4004    4013
CTETRA     11234       1    2918    5207    5340    5345
CTETRA     11235       1     594     759     761     592
CTETRA     11236       1    1878    2815    2256    2915
CTETRA     11237       1    1083    1084    1077    1081
CTETRA     11238       1      29      32    1392    1394
CTETRA     11239       1    2415    5345    5208    5207
CTETRA     11240       1    1771    5632    3958    3255
CTETRA     11241       1    1392     184    2952    1949
CTETRA     11242       1    2245    5250    5258    5251
CTETRA     11243       1    2076    5252    5210    5251
CTETRA     11244       1    2776    1542    1524    5242
CTETRA     11245       1    2411    2929    3578    3580
CTETRA     11246       1    4783    1501    2381    2590
CTETRA     11247       1     734     780    1119     781
CTETRA     11248       1    2538    3624    3625    3598
CTETRA     11249       1    1390    3575    3586    3576
CTETRA     11250       1    1726    2299    3570    1328
CTETRA     11251       1    1328    2803    1725    3571
CTETRA     11252       1    2246    5259    5223    5252
CTETRA     11253       1    1981    1949    1998    1475
CTETRA     11254       1    2568    3132    3170    3133
CTETRA     11255       1    2767    2529    2769     553
CTETRA     11256       1    2265    2264    2798    2630
CTETRA     11257       1    2646    1031    1020    1661
CTETRA     11258       1    1044    3100    3221    3101
CTETRA     11259       1    2824    1720    1718    3134
CTETRA     11260       1    1249    3025    2127    2705
CTETRA     11261       1      60      62     549     546
CTETRA     11262       1    2543    5317    5318    5329
CTETRA     11263       1    1259    2250    1860    1862
CTETRA     11264       1    2936    5210    2816    2076
CTETRA     11265       1     637    1824     638     639
CTETRA     11266       1    1345     105    3640    3635
CTETRA     11267       1    1707    3245    1705    3246
CTETRA     11268       1    2299    1328    3581    3570
CTETRA     11269       1    3174     187    2537    3107
CTETRA     11270       1    1683    1685    1828    3014
CTETRA     11271       1    1057    1065    4030    4029
CTETRA     11272       1    1414    1428    1655    1429
CTETRA     11273       1    1607     881    1633     880
CTETRA     11274       1    5148    5145    2430    1877
CTETRA     11275       1    1075    4036    2130    4032
CTETRA     11276       1    3886    3062    3867     244
CTETRA     11277       1     244     243    3867    3868
CTETRA     11278       1    1771    2634    2073    3235
CTETRA     11279       1    1100    1099     881    1756
CTETRA     11280       1    1102    1756    1099    1100
CTETRA     11281       1    1673    4764    4756    4757
CTETRA     11282       1    1294    1292    1671    1678
CTETRA     11283       1    1681    1676    1959    1678
CTETRA     11284       1    1670    1675    1674    2863
CTETRA     11285       1    2615    2411    3580    2929
CTETRA     11286       1    1102    1535    1220    1756
CTETRA     11287       1    1675    1958    5250    2248
CTETRA     11288       1      58    2200    1757    1756
CTETRA     11289       1    1673    5882    5246    4756
CTETRA     11290       1    2866    5213    5245    5212
CTETRA     11291       1     826    1448    2397     350
CTETRA     11292       1    1531    1757    1758    1299
CTETRA     11293       1    4776    2228     864    1257
CTETRA     11294       1    1757    1756    2200    1099
CTETRA     11295       1    1958    5211    5250    5251
CTETRA     11296       1     634    1724    2407    2078
CTETRA     11297       1    3256    2325    3257    1707
CTETRA     11298       1    1292    4768    1294    4759
CTETRA     11299       1    2283    5237    5219    5226
CTETRA     11300       1    1757    2200    1758    2453
CTETRA     11301       1    1729    3616    3569    3597
CTETRA     11302       1      56      55      35    2079
CTETRA     11303       1    1726    3569    3616    3570
CTETRA     11304       1     807     812    1198    1154
CTETRA     11305       1     137     143     461     142
CTETRA     11306       1     727    1957    2355     726
CTETRA     11307       1     146     391     148     144
CTETRA     11308       1    2032    4823    4827    4824
CTETRA     11309       1    1503    4823    4824    4820
CTETRA     11310       1    3069    2976    2968    1541
CTETRA     11311       1    1975    5325    2771    5316
CTETRA     11312       1    2764    1761    2383    3509
CTETRA     11313       1     146     392     387     393
CTETRA     11314       1    1372    1871    4807    4810
CTETRA     11315       1     128    2259     988     131
CTETRA     11316       1    1755    2381    2761    2404
CTETRA     11317       1    2678    2405    3564    2014
CTETRA     11318       1     128    2259     867     962
CTETRA     11319       1    1503    4820    4824    4810
CTETRA     11320       1    3023    3542    3574    3543
CTETRA     11321       1    3246    3257    1704    1707
CTETRA     11322       1    2818    5848    3503    5343
CTETRA     11323       1    1242    2677    2639    2321
CTETRA     11324       1    2833    3245    1707    3258
CTETRA     11325       1     962    1881    2474     961
CTETRA     11326       1     291     433    1941     295
CTETRA     11327       1     268     961     954     960
CTETRA     11328       1    2266    3591    3593    3585
CTETRA     11329       1    1072     306     309     299
CTETRA     11330       1    3553    1180    3552    3554
CTETRA     11331       1      47    2343     554    2344
CTETRA     11332       1    1771    3959    3958    5632
CTETRA     11333       1    2992    5356    5352    5351
CTETRA     11334       1    1741    2765    1737    3500
CTETRA     11335       1    2992    5351    5352    5339
CTETRA     11336       1    1069    1157     720    1669
CTETRA     11337       1     713     321     718     721
CTETRA     11338       1    3001    1952    3664    1977
CTETRA     11339       1    1669    2545     844    1115
CTETRA     11340       1     919     930     925    1485
CTETRA     11341       1    2991    5339    5352    5340
CTETRA     11342       1    2817    2819    5337    1084
CTETRA     11343       1    1273    2555    1669     844
CTETRA     11344       1    1669    2545    1115    1157
CTETRA     11345       1    1071    1894     307    3077
CTETRA     11346       1    2991    5339    5340    5341
CTETRA     11347       1    1838    1762    2763    2959
CTETRA     11348       1    1182    3486    3487    3502
CTETRA     11349       1    2069    3201    2194    3202
CTETRA     11350       1    1068    1157    1669    2432
CTETRA     11351       1    2395    5349    5356    5351
CTETRA     11352       1    2972    5338    5351    5339
CTETRA     11353       1    1919    2931     778    2414
CTETRA     11354       1    2959    3488    3553    3555
CTETRA     11355       1    3256    2634     814    2325
CTETRA     11356       1    1917    1919     778    2414
CTETRA     11357       1    1861    2283    2807    2864
CTETRA     11358       1     103    3622    3631    3623
CTETRA     11359       1    2179    1979    3046    1919
CTETRA     11360       1    1917     463    1979    2484
CTETRA     11361       1    2843    5225    5224    5260
CTETRA     11362       1    1707    2634    3256    2325
CTETRA     11363       1    2843    5231    5224    5225
CTETRA     11364       1     859     858      45      42
CTETRA     11365       1    2179    1919     458     457
CTETRA     11366       1     727    1539    1955    1200
CTETRA     11367       1     931    2033    2005    1993
CTETRA     11368       1     976     980    1615    2871
CTETRA     11369       1    2069    3996    3947    4009
CTETRA     11370       1     418    2267    1759     700
CTETRA     11371       1     419     696     418     980
CTETRA     11372       1     972     979     232     698
CTETRA     11373       1    2073    3188    3187    3236
CTETRA     11374       1    2069    3202    3187    3188
CTETRA     11375       1    3084     905    2927    3965
CTETRA     11376       1    2856    5153    1652    1430
CTETRA     11377       1     776    3131    3102    3169
CTETRA     11378       1    1252    2429    2785    1253
CTETRA     11379       1     699     976     979     978
CTETRA     11380       1     661     495    2184    1096
CTETRA     11381       1    2856    2280    5152    2925
CTETRA     11382       1    2567    4034    4038    4035
CTETRA     11383       1    1771    2634    1792    2075
CTETRA     11384       1    1092     362     363    1094
CTETRA     11385       1    2646    3227    3103    3102
CTETRA     11386       1    1098    2185    1269     494
CTETRA     11387       1    2566    4033    4037    4038
CTETRA     11388       1    2203     686     849    1753
CTETRA     11389       1     987    1269    1098    1096
CTETRA     11390       1    1190    1192    2444    1213
CTETRA     11391       1    1918     691     177    3035
CTETRA     11392       1    1865    4826    4830    4828
CTETRA     11393       1    1641    4803    4804    4786
CTETRA     11394       1    1506    2183    4811    1868
CTETRA     11395       1    2841    3182    3183    3178
CTETRA     11396       1    1109      44    1110      51
CTETRA     11397       1    1582    4045    4044    4046
CTETRA     11398       1    1064    2571    2568     776
CTETRA     11399       1     673    1032    1033    1904
CTETRA     11400       1     745    1968     588    1211
CTETRA     11401       1     370    2181     555    2997
CTETRA     11402       1     175    2323    1918     177
CTETRA     11403       1    1067    3218    3221    3217
CTETRA     11404       1    2972    5338    5339    5342
CTETRA     11405       1    2181     555    2997    2742
CTETRA     11406       1    3056    2972    2680    2992
CTETRA     11407       1    3057    3485    3486    3504
CTETRA     11408       1    2818    3504    5848    5344
CTETRA     11409       1     487     332     481     272
CTETRA     11410       1    1275     333     334     335
CTETRA     11411       1     334    1570    2755    2754
CTETRA     11412       1     334     335     340    2625
CTETRA     11413       1     334    2624    1341     335
CTETRA     11414       1    3057    5338    5342    5344
CTETRA     11415       1     334    1570     482    2755
CTETRA     11416       1     334     335    2625    2624
CTETRA     11417       1    1606     516    1710    1512
CTETRA     11418       1     517    4358    4394    1603
CTETRA     11419       1    1583    1720    2572    1718
CTETRA     11420       1     328    1605     518    1912
CTETRA     11421       1    1204    1206    3066    2888
CTETRA     11422       1     516    4376    1512    2041
CTETRA     11423       1     514    2041    1512    1910
CTETRA     11424       1     516     520    4357    4377
CTETRA     11425       1    2306    3146    1822    2308
CTETRA     11426       1    1046    1051     947    1048
CTETRA     11427       1    2078    2246    1208    1259
CTETRA     11428       1     827    1883     350    2397
CTETRA     11429       1    1443    1258     353     825
CTETRA     11430       1    2572    3145    3134    3171
CTETRA     11431       1    1117    4165    4166    4168
CTETRA     11432       1    1258    2077    2936    2076
CTETRA     11433       1    1258     825     637     353
CTETRA     11434       1     844    5003    5002    5023
CTETRA     11435       1     493    1443    2078    1208
CTETRA     11436       1    3085    1442    2266     493
CTETRA     11437       1    2000     896     927    2033
CTETRA     11438       1    1865    1460    1461    1476
CTETRA     11439       1    1503    4811    4810    4824
CTETRA     11440       1     493    1443    1208    1441
CTETRA     11441       1    1443    2936    1258    2077
CTETRA     11442       1    1057    1045    1043    4025
CTETRA     11443       1     826    1448    2919    2397
CTETRA     11444       1     493    1442    1441    3085
CTETRA     11445       1      35    2547    2186    1529
CTETRA     11446       1    2186      59     755     754
CTETRA     11447       1    2270    3593    3594    3586
CTETRA     11448       1      59    1533    1529     755
CTETRA     11449       1    2186     744    4218    4219
CTETRA     11450       1    2186    4230    1529    4231
CTETRA     11451       1     744    2941    4219    2186
CTETRA     11452       1    2888    1586    3251    3253
CTETRA     11453       1     630    1294    1671    1678
CTETRA     11454       1     492    5228    5236    5223
CTETRA     11455       1    1672    4761    4764    4757
CTETRA     11456       1    1529     755    2186      59
CTETRA     11457       1    3066    1206    3275    3248
CTETRA     11458       1    1523    5883    4764    4763
CTETRA     11459       1      56    1529    2186      59
CTETRA     11460       1    1676    1678    1672    4757
CTETRA     11461       1    2068    2447    1559    1558
CTETRA     11462       1    1133    1236    1237    1219
CTETRA     11463       1    1236     418    1831    1759
CTETRA     11464       1    1102    1099    1757    2470
CTETRA     11465       1    1685    1214    3014    1683
CTETRA     11466       1    1916    2121    2122    2874
CTETRA     11467       1    1884    1685    1828    1684
CTETRA     11468       1    1684    1827     980    1600
CTETRA     11469       1    2069    3202    3188    3201
CTETRA     11470       1    2074    3948    3996    3991
CTETRA     11471       1    2510    2540    2512    2436
CTETRA     11472       1    2927    1745    3994    1746
CTETRA     11473       1    1771     897    2833    3255
CTETRA     11474       1     774    1884    1685    1214
CTETRA     11475       1    1771    2075    3954    3959
CTETRA     11476       1     803    1135     709     387
CTETRA     11477       1     804    2356     800     802
CTETRA     11478       1    1245     805     802     450
CTETRA     11479       1     237    5137    5145    5138
CTETRA     11480       1    1657    1877    3211    2539
CTETRA     11481       1     804    1135    1956    1140
CTETRA     11482       1    1658     237    1663    1874
CTETRA     11483       1     804    1332    1140    1956
CTETRA     11484       1    1332     448    1989    2216
CTETRA     11485       1    2935    3158    3157    3163
CTETRA     11486       1    1718    3135    3134    3145
CTETRA     11487       1     378     106     108     542
CTETRA     11488       1    2998    1458    1457    2948
CTETRA     11489       1    3140    2825    1718    2824
CTETRA     11490       1    4053    2948    4054    4052
CTETRA     11491       1    1553     721    1554    2791
CTETRA     11492       1    2306    3163    2310    1384
CTETRA     11493       1    1451    1452    3893    2684
CTETRA     11494       1     799    1197     392     803
CTETRA     11495       1    2495     879      59    1536
CTETRA     11496       1     879      59    2186    2495
CTETRA     11497       1    3618    5858    5221    5276
CTETRA     11498       1    1934    5860    5269    3404
CTETRA     11499       1    1215     772    1537    3058
CTETRA     11500       1     910     916    2300    1637
CTETRA     11501       1     916    2658    3079    1637
CTETRA     11502       1    2836    5231    5228    5224
CTETRA     11503       1    2658    2301    1536    2659
CTETRA     11504       1    1670    1674    1673    1672
CTETRA     11505       1     916    2941    2658     879
CTETRA     11506       1    2430    3195    5148    1877
CTETRA     11507       1    2658    1637    1536    2301
CTETRA     11508       1    1903    2525    2506    2430
CTETRA     11509       1    1768    1381    2772    1382
CTETRA     11510       1    2658    2660    2401    3079
CTETRA     11511       1    1310    2614    2999     779
CTETRA     11512       1     857    1241    1240     851
CTETRA     11513       1     770     745     588     771
CTETRA     11514       1      75     506     510     509
CTETRA     11515       1    2718    2455    5114    5113
CTETRA     11516       1    2540    3241    3193    3192
CTETRA     11517       1     779     778    2414     769
CTETRA     11518       1    2999    1543    2803    1310
CTETRA     11519       1     779     777      52     778
CTETRA     11520       1     767     770     510     508
CTETRA     11521       1    1038    1037    2194    1041
CTETRA     11522       1     211    3212    5665    3209
CTETRA     11523       1    1310     779    2999    1543
CTETRA     11524       1    1036    3999    1039    2457
CTETRA     11525       1     635     509    1310     862
CTETRA     11526       1    1187    1556    2468    3039
CTETRA     11527       1     186    3214    3207    3213
CTETRA     11528       1     767    1543     768     779
CTETRA     11529       1    2227    5213    5331    4793
CTETRA     11530       1     588     778     767     769
CTETRA     11531       1    1588    1435     409     412
CTETRA     11532       1    2816    5330    5212    5211
CTETRA     11533       1    1693    1641     351    1692
CTETRA     11534       1    5235     490     492    3085
CTETRA     11535       1    1226    2713    1435    2278
CTETRA     11536       1     493    2266    1390    1442
CTETRA     11537       1     542     409    2713    2714
CTETRA     11538       1    1040    3223    3201    3200
CTETRA     11539       1    4002    5637    4005    3219
CTETRA     11540       1    3190    1040    1571    1790
CTETRA     11541       1    2194    4006    1037    1036
CTETRA     11542       1    1563    2070    1790    1040
CTETRA     11543       1    1403    2281    1225    2702
CTETRA     11544       1     391     392     804     800
CTETRA     11545       1    1559    2194    2069    2070
CTETRA     11546       1     239    1403      91     376
CTETRA     11547       1    2039    4798    4797    4802
CTETRA     11548       1    2381    4783    4794    4784
CTETRA     11549       1    1361    5320    5326    5319
CTETRA     11550       1    2750    5355    5348    5320
CTETRA     11551       1    2870      97     371     380
CTETRA     11552       1    2455    5103    2456    2465
CTETRA     11553       1    1344    1042    1562    1342
CTETRA     11554       1    1295    2886    3086    2011
CTETRA     11555       1    2184     661    1566     928
CTETRA     11556       1    1975    4801    4800    4818
CTETRA     11557       1     735     444    1005    3654
CTETRA     11558       1    2068    1774    1559    2447
CTETRA     11559       1    2591    1569    1344    2927
CTETRA     11560       1    1574    2512    2455    2526
CTETRA     11561       1    2886    1344    2011    1295
CTETRA     11562       1    1081    5312    5333    5334
CTETRA     11563       1    3504    5849    5848    5344
CTETRA     11564       1     481    1569    1568    1295
CTETRA     11565       1    2819    5344    5337    5338
CTETRA     11566       1    1275     334    1341     335
CTETRA     11567       1    1741    3506    3499    3500
CTETRA     11568       1    1084    5337    5334    5350
CTETRA     11569       1    1573    2456    2052    2465
CTETRA     11570       1    2940    5311    5334    5335
CTETRA     11571       1    4770    4772    4773    1189
CTETRA     11572       1    2511    2896    5111    3250
CTETRA     11573       1    1483    5428     163    5451
CTETRA     11574       1    1483    2509    3348    5430
CTETRA     11575       1    1553    2667    3016    2934
CTETRA     11576       1    5453    5430    5454    1483
CTETRA     11577       1    1711    2055     131    2054
CTETRA     11578       1    5230    2848    2807    5231
CTETRA     11579       1    2275     491    3588    2794
CTETRA     11580       1    1711     134     656    2056
CTETRA     11581       1     330    1939    1404     283
CTETRA     11582       1     128     268     955     962
CTETRA     11583       1     992     135     991    2257
CTETRA     11584       1    2896    1821    3253    3254
CTETRA     11585       1       2     134     988     135
CTETRA     11586       1    1726    3569    1729    3616
CTETRA     11587       1    2284    2839     666     103
CTETRA     11588       1     666     103    3619    3622
CTETRA     11589       1     566     619    2241    4745
CTETRA     11590       1    2241    2792    2240    4730
CTETRA     11591       1    1934    5284    5269    5277
CTETRA     11592       1     292    2018    1799     290
CTETRA     11593       1     530     609    1906    2030
CTETRA     11594       1    2000    3933    3934    3926
CTETRA     11595       1     988     131    2259    2054
CTETRA     11596       1    1707    3256    3258    3245
CTETRA     11597       1    2456    5108    5107    5113
CTETRA     11598       1     482    2624    2625    3011
CTETRA     11599       1    5873    5874    4821    5397
CTETRA     11600       1    1370    1885    1504    2417
CTETRA     11601       1    2799    2770    1967    1371
CTETRA     11602       1    1967    1975    4822    4818
CTETRA     11603       1    2560    5404    5314    5313
CTETRA     11604       1    2032    4827    4829    4824
CTETRA     11605       1    2069    2074    3947    3996
CTETRA     11606       1    1961    4798    2039    4802
CTETRA     11607       1     992    2257    2753     135
CTETRA     11608       1    2267    1831    2846    2581
CTETRA     11609       1    2267    1759    2594    2846
CTETRA     11610       1    1924    4791    4789    4790
CTETRA     11611       1    1693    5322    4786    4789
CTETRA     11612       1    1831    2565    2581    3050
CTETRA     11613       1    1219     774    1685    1214
CTETRA     11614       1    1924    1691    2589    4787
CTETRA     11615       1    1548    1501    2381    4785
CTETRA     11616       1    2604     700    2222    2564
CTETRA     11617       1     744    4062    2941    4061
CTETRA     11618       1    2746    5169    5165    5164
CTETRA     11619       1    3087    3209    5147    5666
CTETRA     11620       1    1102    2470    1106    1107
CTETRA     11621       1    1220      58    1106    1102
CTETRA     11622       1    1275    2011    1344    1295
CTETRA     11623       1    1533    3014    4227    4228
CTETRA     11624       1    3203    3213    1659    3207
CTETRA     11625       1     881      57      55     880
CTETRA     11626       1    1932    1608     342    1635
CTETRA     11627       1    2129     371    1452    1451
CTETRA     11628       1    1102    1231    1932    1105
CTETRA     11629       1    5397    2799    4825    5398
CTETRA     11630       1    1102    1535    1756    1100
CTETRA     11631       1    2799    5405    5398    5397
CTETRA     11632       1    1371    4820    4819    4823
CTETRA     11633       1    2186     755    4230    4217
CTETRA     11634       1    1633     881    2878     880
CTETRA     11635       1     342    2328    2187     343
CTETRA     11636       1    1306    5272    5271    5214
CTETRA     11637       1    1629    1103    1100    1105
CTETRA     11638       1    2776    2637    1835    4766
CTETRA     11639       1     632    3633    3630    3359
CTETRA     11640       1    1055    5255    5239    5238
CTETRA     11641       1    1673    1672    1523    4764
CTETRA     11642       1    2851    1107    1103    1104
CTETRA     11643       1    2535    2746    1653    5169
CTETRA     11644       1    3208    2464     187    3107
CTETRA     11645       1     186    3087    5143    3214
CTETRA     11646       1    1433    5159    2925    2856
CTETRA     11647       1    2069    3202    4009    5634
CTETRA     11648       1    2328    1105    2244    2851
CTETRA     11649       1    3003    1823    1822    2572
CTETRA     11650       1    2187     752     343    2244
CTETRA     11651       1    1719    4038    4037    4040
CTETRA     11652       1    2824    1719    1718    1720
CTETRA     11653       1      48    1347     347      47
CTETRA     11654       1    2825    4040    4039    4042
CTETRA     11655       1    4052    5646    5645    3141
CTETRA     11656       1    1932     215    1220    2376
CTETRA     11657       1    2244    1232    2458    2272
CTETRA     11658       1    2661    4578    4555    4502
CTETRA     11659       1    3139    4054    5646    5647
CTETRA     11660       1    2268    1376    1373    1490
CTETRA     11661       1    1457    1583    1718    2825
CTETRA     11662       1    2229    2862    2097    2269
CTETRA     11663       1    2825    4039    4052    4042
CTETRA     11664       1    2349    2393    5458    5459
CTETRA     11665       1    2510    5661    3252    5115
CTETRA     11666       1    2896    3254    3253    3249
CTETRA     11667       1    1722    1721    3088    3037
CTETRA     11668       1    1722    2672     121    2901
CTETRA     11669       1    1705    3281    3245    3272
CTETRA     11670       1    2525    2540    2512    2524
CTETRA     11671       1     114    1156    1211    1160
CTETRA     11672       1    1256    4167    4171    4172
CTETRA     11673       1    4448    4171    5788    5789
CTETRA     11674       1    1722    2676    1544     738
CTETRA     11675       1    1722    1544    2676    2901
CTETRA     11676       1    1213     823    2900     123
CTETRA     11677       1     120     123    1212    2685
CTETRA     11678       1    2287    1211    1160     115
CTETRA     11679       1     787    1006    1007    1731
CTETRA     11680       1    3595    2275    5232    5227
CTETRA     11681       1    2836    5232    5227    5228
CTETRA     11682       1    1553    2835    3016    2867
CTETRA     11683       1    3485    5342    5850    5849
CTETRA     11684       1    2495    2658    2660     744
CTETRA     11685       1    5854    5227    3595    5855
CTETRA     11686       1     490    5854    3595    3594
CTETRA     11687       1     490    2270    3085    5235
CTETRA     11688       1    1858     212     883     885
CTETRA     11689       1      51    2446    2420     357
CTETRA     11690       1    1858     945    2047    2204
CTETRA     11691       1    1826    2820    2543    1693
CTETRA     11692       1    2820    5317    2543    5329
CTETRA     11693       1    4789    5322    4786    5878
CTETRA     11694       1     945    2233    2204    2234
CTETRA     11695       1    1360    1641    4803    2038
CTETRA     11696       1    1641    5322    5877    4786
CTETRA     11697       1    1360    5324    5327    5326
CTETRA     11698       1    1641    5327    5322    5323
CTETRA     11699       1    5324    5327    5876    4803
CTETRA     11700       1     946    2317    2051    2233
CTETRA     11701       1     945    2051    2047    2233
CTETRA     11702       1    2820    4791    5331    5328
CTETRA     11703       1    4217     754     744    2186
CTETRA     11704       1    2982      20     981      21
CTETRA     11705       1     981      20    3053    1322
CTETRA     11706       1    2762    5231    5229    5232
CTETRA     11707       1     698    1322     981    2382
CTETRA     11708       1    5232    3595    5227    5855
CTETRA     11709       1    2954    3100    3222    3221
CTETRA     11710       1    1067    2829    1222    3217
CTETRA     11711       1    2954    1044    3221    1067
CTETRA     11712       1    2275    3567    3592    3590
CTETRA     11713       1     417    1314     420     994
CTETRA     11714       1    1057    3100    1043    1044
CTETRA     11715       1    1041    3225    3223    3226
CTETRA     11716       1    1150    1199     339     503
CTETRA     11717       1     339     503     338    1150
CTETRA     11718       1     332    1329     838    1570
CTETRA     11719       1     838    1331     837    1332
CTETRA     11720       1    4002    2879    1063    4020
CTETRA     11721       1    3222    2879    3219    4020
CTETRA     11722       1    1041    3224    3225    4007
CTETRA     11723       1     211    3212    1877    5148
CTETRA     11724       1    1570    1329     833    2293
CTETRA     11725       1    3087    5666    3214    3209
CTETRA     11726       1     504     482    1570    2755
CTETRA     11727       1    1570    1329    2756    2981
CTETRA     11728       1    1429    2746    2747    2749
CTETRA     11729       1     187    3207    3208    3106
CTETRA     11730       1     334    2755     482    2625
CTETRA     11731       1     331     338    1150     339
CTETRA     11732       1    2430    3194    3195    3196
CTETRA     11733       1    1656     783    1419    2747
CTETRA     11734       1    1877    3195    3212    3211
CTETRA     11735       1    1445     367    2413    1407
CTETRA     11736       1    1445    1716    1715    2116
CTETRA     11737       1    1445    2476    2116    2362
CTETRA     11738       1     202     625     367    1716
CTETRA     11739       1    1037    4005    4006    4007
CTETRA     11740       1     625    1714     258     266
CTETRA     11741       1    1445    1716    2116    2922
CTETRA     11742       1    2116    1973    2922    1716
CTETRA     11743       1    1429    2747    1419    2749
CTETRA     11744       1    3107    3175    5669    5173
CTETRA     11745       1    2464    3208    5171    5668
CTETRA     11746       1    5173    2537    2464    3107
CTETRA     11747       1    1229    4283    4276    4279
CTETRA     11748       1    1945    1947      17    1002
CTETRA     11749       1     883     212     937      12
CTETRA     11750       1    2169    1614    1216    1635
CTETRA     11751       1    2048    2047    2363    2111
CTETRA     11752       1    1323     207      11     655
CTETRA     11753       1     654     209     655     641
CTETRA     11754       1     136    2125     139     453
CTETRA     11755       1    1976     461     142     463
CTETRA     11756       1     747     752    1933     753
CTETRA     11757       1     386     387    2914    2964
CTETRA     11758       1     386    1825     461    2964
CTETRA     11759       1    3195    5148    3212    5664
CTETRA     11760       1    2430     237    5138    2506
CTETRA     11761       1    1972    3089    3090    2725
CTETRA     11762       1    1586    3253    3239    3251
CTETRA     11763       1     136     458     455     457
CTETRA     11764       1     462     459    1978    1121
CTETRA     11765       1    2017     214    1234     465
CTETRA     11766       1     545    2713    2703    2552
CTETRA     11767       1    2017     465     471     214
CTETRA     11768       1    2145    2841    2537    2307
CTETRA     11769       1     214     215     216    1234
CTETRA     11770       1    1217     215     216    2501
CTETRA     11771       1    1235    2017     415    1378
CTETRA     11772       1    3194    5150    3195    5663
CTETRA     11773       1    2540    3242    3194    3193
CTETRA     11774       1    2430    3195    3194    5150
CTETRA     11775       1    5324    5876    5875    4800
CTETRA     11776       1    1360    5324    5325    5316
CTETRA     11777       1      58    1756    1102    1220
CTETRA     11778       1    1360    2038    4803    4801
CTETRA     11779       1    2954    3222    5639    4020
CTETRA     11780       1     342     344    1352    1351
CTETRA     11781       1     751     752    1840     750
CTETRA     11782       1    1057    3143    3100    3101
CTETRA     11783       1    1028    1066    1030    1224
CTETRA     11784       1    1535    1216    1614    1635
CTETRA     11785       1    4726    4674    4675    2519
CTETRA     11786       1    2270    5854    3594    5853
CTETRA     11787       1    2599    4674    5811    4726
CTETRA     11788       1    3085    5234    5207    5233
CTETRA     11789       1    2918    5207    5206    5340
CTETRA     11790       1    2415    5345    5346    5208
CTETRA     11791       1    1973    5833    2519    2336
CTETRA     11792       1    3597    3620    3568    2794
CTETRA     11793       1    2599    2519    4726    5833
CTETRA     11794       1    1691    4787    4786    4804
CTETRA     11795       1    2599    2336    4440    2338
CTETRA     11796       1    3091    5850    5342    5341
CTETRA     11797       1    1870    1871    1315    2066
CTETRA     11798       1    2599    4674    4437    5811
CTETRA     11799       1    2599    2336    4441    4440
CTETRA     11800       1    2639    2321    3548    3544
CTETRA     11801       1    1390    3583    3575    3576
CTETRA     11802       1    1164     757    1249    1166
CTETRA     11803       1    1959    1677    1958    1681
CTETRA     11804       1    1402    1225    3065     247
CTETRA     11805       1    1960    5330    5331    5212
CTETRA     11806       1    5331    5328    4791    5879
CTETRA     11807       1    2069    3187    5634    3947
CTETRA     11808       1    2194    2074    3996     906
CTETRA     11809       1      96     765     303    1076
CTETRA     11810       1     765    2740    2881    1894
CTETRA     11811       1      96     756    1227     303
CTETRA     11812       1    2194    3224    3202    3201
CTETRA     11813       1    2794    1729    3569    3597
CTETRA     11814       1    2794    2299    3588    3569
CTETRA     11815       1    1960    1681    2866    2227
CTETRA     11816       1    1270    1160     112    2151
CTETRA     11817       1    5213    5331    4793    5880
CTETRA     11818       1    1960    5331    5213    5212
CTETRA     11819       1    2866    4756    5246    5881
CTETRA     11820       1    2288    1160    2629    3068
CTETRA     11821       1     819    2700     811    3068
CTETRA     11822       1    1675    5245    5246    5244
CTETRA     11823       1    3591    5341    5206    5851
CTETRA     11824       1    1863    2794    2795    1729
CTETRA     11825       1    2991    5341    5340    5206
CTETRA     11826       1    2151    1270     113     112
CTETRA     11827       1    2330    1271     443    1270
CTETRA     11828       1     816    2885    1270    2330
CTETRA     11829       1     809     808     677     806
CTETRA     11830       1    3224    4009    3202    5635
CTETRA     11831       1     811     807     815     819
CTETRA     11832       1    3224    3225    4007    5636
CTETRA     11833       1    2194    3202    3224    4009
CTETRA     11834       1    3087    3214    3213    3209
CTETRA     11835       1     186    5171    5143    5165
CTETRA     11836       1    1656     186    3087    2747
CTETRA     11837       1    1753     808    1696    1274
CTETRA     11838       1     807    1721     114    1155
CTETRA     11839       1    3143    3100    5640    4017
CTETRA     11840       1    1075     572     567     574
CTETRA     11841       1    1057    3143    3101    3131
CTETRA     11842       1    1057    3143    4017    3100
CTETRA     11843       1    1861    1050    1053    1056
CTETRA     11844       1    1051     422      87    1050
CTETRA     11845       1     507    1724    1723     634
CTETRA     11846       1    2637    1048    1540    2475
CTETRA     11847       1     862     634     635    1723
CTETRA     11848       1    1936    1948    3647    2346
CTETRA     11849       1    1047    1953    2475    2779
CTETRA     11850       1    3091    5341    5342    5339
CTETRA     11851       1    1046    1052    1054    2131
CTETRA     11852       1    1344    2876    1560    1562
CTETRA     11853       1    2738    3502    3505    3506
CTETRA     11854       1    1561    1205    1586    2325
CTETRA     11855       1    1557     497    1342    1042
CTETRA     11856       1     854    1919    2931     778
CTETRA     11857       1    1535    2376    1932    1220
CTETRA     11858       1      79      78    2538    1728
CTETRA     11859       1    2762    3567    2795    2794
CTETRA     11860       1     465      50    2120    1347
CTETRA     11861       1    2180    2181    2575    1918
CTETRA     11862       1    1457    2857    1718    3003
CTETRA     11863       1     350    2022    1834    1883
CTETRA     11864       1     827     828    2020     860
CTETRA     11865       1     854     779     778    2931
CTETRA     11866       1    1575    1573    1574    1204
CTETRA     11867       1    2511    2718    5114    5111
CTETRA     11868       1    2540    3241    3242    3193
CTETRA     11869       1    3242    2540    3194    5106
CTETRA     11870       1    2719    2718    5111    5110
CTETRA     11871       1    2178    1919    2339    2931
CTETRA     11872       1    1918    2742    2188    2323
CTETRA     11873       1     629    1826     637     639
CTETRA     11874       1     636    1311     825     862
CTETRA     11875       1     390     388     373     375
CTETRA     11876       1    1181    2465    5102    1168
CTETRA     11877       1    2568    4029    3142    3144
CTETRA     11878       1     778     779     854      52
CTETRA     11879       1    1064    1020     573     574
CTETRA     11880       1     835    1590    1379    1694
CTETRA     11881       1    1416     839    1873    1415
CTETRA     11882       1    1417    1663     668    1662
CTETRA     11883       1    1014    1032     488    1029
CTETRA     11884       1     571    1184     581     579
CTETRA     11885       1    1057    4024    4029    4030
CTETRA     11886       1    4029    3142    3144    5642
CTETRA     11887       1    2568    3144    3142    3132
CTETRA     11888       1    1552     836    1415     834
CTETRA     11889       1    1031     776    1064    1057
CTETRA     11890       1    2511    2512    5114    2718
CTETRA     11891       1    2511    3252    3250    5660
CTETRA     11892       1    2510    3252    3242    3241
CTETRA     11893       1     186    5171    3208    5667
CTETRA     11894       1    1724    2299    2794    1729
CTETRA     11895       1    2464    3107    5668    5170
CTETRA     11896       1     211    3087    1656    1657
CTETRA     11897       1    1133    1231    1220    1106
CTETRA     11898       1    2068    2069    2074    2073
CTETRA     11899       1     673     672    1033     668
CTETRA     11900       1    2992    5351    2395    5356
CTETRA     11901       1    1837    3488    3489    3498
CTETRA     11902       1    2417    5313    5314    5332
CTETRA     11903       1    1699    3004    1761    2946
CTETRA     11904       1    2032    4829    1866    1506
CTETRA     11905       1    1533    2877    4228     755
CTETRA     11906       1    2069    2073    3188    3187
CTETRA     11907       1    2938    5403    5312    5402
CTETRA     11908       1    5665    3212    5148    5664
CTETRA     11909       1     755    1533    1529    4230
CTETRA     11910       1     772     774    2877    3051
CTETRA     11911       1    1236     774    1312    2503
CTETRA     11912       1     186    5667    3208    3214
CTETRA     11913       1     774    3071    2503    2596
CTETRA     11914       1    1133    1791    1104    1106
CTETRA     11915       1    1531    1529      58    1533
CTETRA     11916       1    1812    2909    4121    2732
CTETRA     11917       1    5856    3590    5232    5855
CTETRA     11918       1     666    5229    5221    5857
CTETRA     11919       1      64      73      72      60
CTETRA     11920       1      72      71     547    2531
CTETRA     11921       1    1659     188     186    1656
CTETRA     11922       1      73      72     553    2265
CTETRA     11923       1      71    2531    2352    3006
CTETRA     11924       1      72    2351      71    2352
CTETRA     11925       1    2080    3008      71      36
CTETRA     11926       1    3008      71    2352    3006
CTETRA     11927       1     474    2017    1234     465
CTETRA     11928       1    1104    1134    2272    2121
CTETRA     11929       1    1106    1333    2122    2470
CTETRA     11930       1    1164     756     757     302
CTETRA     11931       1     300     299     307     308
CTETRA     11932       1     299    2549     307    3013
CTETRA     11933       1    4005    3225    5636    4007
CTETRA     11934       1     300     307     766     308
CTETRA     11935       1     307     308    3013    2910
CTETRA     11936       1    2644    1227     301    2065
CTETRA     11937       1     306    1071     307     299
CTETRA     11938       1    1071    1158    1895     912
CTETRA     11939       1     490    5854    5235    5227
CTETRA     11940       1    1069    1073    1619    1125
CTETRA     11941       1    1734    1709    1687    1690
CTETRA     11942       1     317    1606     325     319
CTETRA     11943       1    1512    2312    1910    2041
CTETRA     11944       1     319    1906     530     872
CTETRA     11945       1    1910     872     873    1512
CTETRA     11946       1    5853    5235    2270    5854
CTETRA     11947       1    1519    1521    4337    4336
CTETRA     11948       1    1519    2428     613    2154
CTETRA     11949       1      53     554     555    2965
CTETRA     11950       1    5353    1448    2919    5346
CTETRA     11951       1    3212    1877    1657     211
CTETRA     11952       1    4033    3144    5643    5642
CTETRA     11953       1    2824    3138    3140    5644
CTETRA     11954       1     174     692     176     175
CTETRA     11955       1     688    1240     854      52
CTETRA     11956       1      53     555    2446    2965
CTETRA     11957       1    2446      53     357      51
CTETRA     11958       1     357    2446    2420    2189
CTETRA     11959       1    2134     498    1905    1819
CTETRA     11960       1     211    5145    1877    1874
CTETRA     11961       1    2102    1889    1990    2942
CTETRA     11962       1    1801     950    1549    1576
CTETRA     11963       1    1889    1498    1424     948
CTETRA     11964       1    1057    3142    4029    5641
CTETRA     11965       1     948     950    1889     432
CTETRA     11966       1    1904     672    2859    1658
CTETRA     11967       1    2102     431    5395    5391
CTETRA     11968       1    1432    1874    1658    1663
CTETRA     11969       1     797    1997    1113     781
CTETRA     11970       1    1997    1996    2633    2202
CTETRA     11971       1    3593    5852    5234    5853
CTETRA     11972       1    1997    2633    1846     797
CTETRA     11973       1    3589    5850    5341    5851
CTETRA     11974       1     113    1270    2435     443
CTETRA     11975       1    1414    1429    1656    1419
CTETRA     11976       1     181    2915     182     991
CTETRA     11977       1    2762    5232    5856    3590
CTETRA     11978       1    3567    2762    2275    2794
CTETRA     11979       1    1006    1998     621    1844
CTETRA     11980       1     118      76      82     505
CTETRA     11981       1    1506    4824    4829    4811
CTETRA     11982       1     257     787    1007    1997
CTETRA     11983       1    1207    1091     734     427
CTETRA     11984       1     786     797    1997    1846
CTETRA     11985       1     781     620    2890    2240
CTETRA     11986       1    5206    2266    3593    5234
CTETRA     11987       1      24     365    1714    1846
CTETRA     11988       1     785     618    1091     782
CTETRA     11989       1    3591    5851    5206    5852
CTETRA     11990       1     429     426     105    2442
CTETRA     11991       1    1221      39    1394     787
CTETRA     11992       1    4039    5645    3140    3141
CTETRA     11993       1     977     973    2974    2607
CTETRA     11994       1    4037    5643    3138    5644
CTETRA     11995       1    2788     700    2267    2604
CTETRA     11996       1    2824    3138    3134    3140
CTETRA     11997       1    1885    1898    2561    2938
CTETRA     11998       1    5874    1967    4822    4821
CTETRA     11999       1    4821    5397    5874    1967
CTETRA     12000       1     230    2424     231    1738
CTETRA     12001       1     254     255     256    1422
CTETRA     12002       1    1967    5315    2770    5397
CTETRA     12003       1     981     698    2695     978
CTETRA     12004       1    1874    1432     783    5146
CTETRA     12005       1    1428    1655    1429    1661
CTETRA     12006       1     187    3178    3106    3174
CTETRA     12007       1    1434     541    1458    1581
CTETRA     12008       1     411    2535    1652     412
CTETRA     12009       1     232     230     979    2757
CTETRA     12010       1     979     230     698    2695
CTETRA     12011       1    2560    5404    5405    5314
CTETRA     12012       1    1427     232     996    1464
CTETRA     12013       1    1502    2183    1506    1868
CTETRA     12014       1    1874    5146     783    5144
CTETRA     12015       1    1841     218     221     223
CTETRA     12016       1     563    5409    5405    5404
CTETRA     12017       1     230     231    2424    2757
CTETRA     12018       1     231    1896     229     225
CTETRA     12019       1    2807    5226    5230    5225
CTETRA     12020       1    2306     109    2310    2313
CTETRA     12021       1    2406     825     860    1311
CTETRA     12022       1    2731    4508    5794    4518
CTETRA     12023       1      99    1808     101    1805
CTETRA     12024       1    4370    4915    5823    4914
CTETRA     12025       1    4914    1853    4915    4913
CTETRA     12026       1    1805    1809    2544     101
CTETRA     12027       1     876     930     933     889
CTETRA     12028       1    1687    4907    4843    4909
CTETRA     12029       1     102    1808    2373     101
CTETRA     12030       1    1853    4912    4918    4913
CTETRA     12031       1    1808    2373     101    2544
CTETRA     12032       1    3021    2310    2944    1808
CTETRA     12033       1     253    1460    2388    1462
CTETRA     12034       1     977    2607    2974    2609
CTETRA     12035       1    2342    3317    2509    5431
CTETRA     12036       1    2445    3316    1383    2622
CTETRA     12037       1    4826     563    5399    2799
CTETRA     12038       1    2349    2268    2393    1374
CTETRA     12039       1    1481    1365    2097    1482
CTETRA     12040       1    4479    4437    4674    5812
CTETRA     12041       1    2818    1182    3502    3504
CTETRA     12042       1    3489    1837    3498    2946
CTETRA     12043       1    1085    2738    1182    1183
CTETRA     12044       1    2817    5343    2933    5335
CTETRA     12045       1    1383    2445    5433    3316
CTETRA     12046       1     118     117     512     505
CTETRA     12047       1     618     822     566     785
CTETRA     12048       1    2872    3080    2873    2123
CTETRA     12049       1    1898    2587    1900    1897
CTETRA     12050       1      82    2917    1964     505
CTETRA     12051       1    1964    2418    3054      82
CTETRA     12052       1    1900    1899    5401    5389
CTETRA     12053       1      76     505      79      82
CTETRA     12054       1     699     419     978     698
CTETRA     12055       1    1899    5401    5400    5406
CTETRA     12056       1    1081    5312    5403    5313
CTETRA     12057       1    2069    3202    5634    3187
CTETRA     12058       1    2283    5220    5226    5219
CTETRA     12059       1    1056    2863    1055    2864
CTETRA     12060       1    2439    1833    2083    1554
CTETRA     12061       1    2934    2683    3895    2439
CTETRA     12062       1    1048    2776    2865    2475
CTETRA     12063       1    1640     429    2442     426
CTETRA     12064       1    1115    4449    4869    4870
CTETRA     12065       1    1673    2866    1675    1676
CTETRA     12066       1      76     823    2090     511
CTETRA     12067       1    2866    4780    2227    1676
CTETRA     12068       1    2740    4871    5004    4872
CTETRA     12069       1     431    2327    3530    3497
CTETRA     12070       1    1737    3500    3510    3511
CTETRA     12071       1    2956    2933    3507    5336
CTETRA     12072       1    2272    2273    2458    3773
CTETRA     12073       1    1084    1083    5350    5333
CTETRA     12074       1    2933    2818    2738    3503
CTETRA     12075       1      80      78    1861    2284
CTETRA     12076       1    1861    1863    2848    2795
CTETRA     12077       1     817     663    2518     425
CTETRA     12078       1    2762    3590    3566    3567
CTETRA     12079       1     667    3622    3632    3631
CTETRA     12080       1    2282    5220    5221    5230
CTETRA     12081       1    2794    3567    3592    2275
CTETRA     12082       1    2841    3073    3178    3179
CTETRA     12083       1    2734    5178    3176    5671
CTETRA     12084       1     263     947    2131    1052
CTETRA     12085       1    1717    1714     266     258
CTETRA     12086       1      95     322     321     924
CTETRA     12087       1     261     262     258    1409
CTETRA     12088       1    3016    2934    3876    2835
CTETRA     12089       1     258     262     951    1409
CTETRA     12090       1    2896    5112    5111    3250
CTETRA     12091       1     261    1445     624    1409
CTETRA     12092       1    2511    3250    3252    3254
CTETRA     12093       1    1883    3056    2397    1177
CTETRA     12094       1    2763    1177    2513    1178
CTETRA     12095       1    2934    2439    3895    3876
CTETRA     12096       1    1739    1183    2738    1086
CTETRA     12097       1    1743    1742    2764    1761
CTETRA     12098       1    1260    5022    5001    5021
CTETRA     12099       1    1837    1762    2959    2763
CTETRA     12100       1     844    5003    4870    5002
CTETRA     12101       1    1833    2681    1450    2683
CTETRA     12102       1     384    4538    2345     383
CTETRA     12103       1    1085    1078    1086    1183
CTETRA     12104       1    1078    1697    1079    1321
CTETRA     12105       1    1256    5788    4171    4167
CTETRA     12106       1    1085    1183    1178    2763
CTETRA     12107       1    1182    1085    1183    1178
CTETRA     12108       1     200     193    1000     958
CTETRA     12109       1     192    1399     189    2211
CTETRA     12110       1     200    1994     958     957
CTETRA     12111       1     196     198    2025     942
CTETRA     12112       1    3618    5858    5857    5221
CTETRA     12113       1    1204    1586    1584    1205
CTETRA     12114       1    1204    1205    2888    1586
CTETRA     12115       1    1573    2052    2456    2719
CTETRA     12116       1    5172    2535    5167    5166
CTETRA     12117       1     188    1589    3073    1429
CTETRA     12118       1    3985    1455    3986    4043
CTETRA     12119       1    5184    2713    2278    5176
CTETRA     12120       1    2735    5182    5177    5187
CTETRA     12121       1    2735    3021    5182    2378
CTETRA     12122       1    2378    5182    5187    5181
CTETRA     12123       1    2106    1737    2107    3511
CTETRA     12124       1    2951    3497    3512    3496
CTETRA     12125       1    2933    5343    3503    5847
CTETRA     12126       1    1204    1574    1821    2436
CTETRA     12127       1    1574    1575    1584    1343
CTETRA     12128       1    1204    2718    1574    2436
CTETRA     12129       1    1862    2250    2843    2247
CTETRA     12130       1    2667    4159    4163    4156
CTETRA     12131       1     744    4219    2941    4062
CTETRA     12132       1    1862     634     507    1860
CTETRA     12133       1    1452    3893    3892    3919
CTETRA     12134       1     634    1724    1723     862
CTETRA     12135       1    2078    2836     492    2842
CTETRA     12136       1    2275     492    5227     490
CTETRA     12137       1      78    2284    2538    2839
CTETRA     12138       1    2186    2941    4219    2547
CTETRA     12139       1    1322    2382    2425    2383
CTETRA     12140       1    1863    1729    1724    2794
CTETRA     12141       1    2695    3517    3520    3518
CTETRA     12142       1    1673    4764    5247    5882
CTETRA     12143       1    2693    3517    3522    3520
CTETRA     12144       1     185     869     990    1281
CTETRA     12145       1    1013    1281     990    2462
CTETRA     12146       1       2     134     130     988
CTETRA     12147       1    1012     441     437    1748
CTETRA     12148       1    1504    2770    2799    1371
CTETRA     12149       1    1740    3509    2765    3499
CTETRA     12150       1    2587    5402    5311    5390
CTETRA     12151       1    2566    2824    3138    1720
CTETRA     12152       1     167     434     435     436
CTETRA     12153       1     441     164    2460     398
CTETRA     12154       1      54      57    1756    1535
CTETRA     12155       1     435     983    2046    2136
CTETRA     12156       1    2008     441    2460     398
CTETRA     12157       1     322     320    1276    2422
CTETRA     12158       1    1814    1809    2544    1805
CTETRA     12159       1     322    1276    2710    3043
CTETRA     12160       1    2799     563    5398    5405
CTETRA     12161       1    2277     527     525     101
CTETRA     12162       1    1897    2561    5402    5407
CTETRA     12163       1     102    2373    2378    2712
CTETRA     12164       1    1369    1371    1370    1504
CTETRA     12165       1    2950     923    3043     524
CTETRA     12166       1    4825    4826    5872    5399
CTETRA     12167       1    4825    5398    5872    5873
CTETRA     12168       1     101    1805    1808    2544
CTETRA     12169       1     527    1276    1277    2277
CTETRA     12170       1      99    1808    1807    2310
CTETRA     12171       1    2604    2608    2788    2563
CTETRA     12172       1    1237    1916    1684     696
CTETRA     12173       1    1832     980    1615    1600
CTETRA     12174       1    1615    1832    1244    2871
CTETRA     12175       1    2864    5237    5254    5238
CTETRA     12176       1     976    1230    2871    1615
CTETRA     12177       1    2864    5226    5253    5237
CTETRA     12178       1    1830    1615    1827    4285
CTETRA     12179       1    1636    1536    2301    2728
CTETRA     12180       1    2267    2412    2788    2773
CTETRA     12181       1    2308    3146    3185    3186
CTETRA     12182       1    1683    2469    1531    3014
CTETRA     12183       1    2941    2909    4110    4063
CTETRA     12184       1    5183    2713    2278    5184
CTETRA     12185       1    3147    3146    2306    3186
CTETRA     12186       1    2654    2004    3268    1993
CTETRA     12187       1    2005    3271    3280    3272
CTETRA     12188       1     484    3898    3926    3899
CTETRA     12189       1     543    3935    3942    3943
CTETRA     12190       1     975    1831    2267    1829
CTETRA     12191       1    2524    2512    2526    5105
CTETRA     12192       1    5112    3250    5659    5111
CTETRA     12193       1    1827    4285    4183    1830
CTETRA     12194       1    2941    4219    2547    4063
CTETRA     12195       1    1183    3502    3487    3505
CTETRA     12196       1    2866    4780    1676    4756
CTETRA     12197       1    1423    2777    2236    1426
CTETRA     12198       1    1897    1899    5406    5401
CTETRA     12199       1      55      56      35     879
CTETRA     12200       1    1638    1627    5373    1628
CTETRA     12201       1      55    1637    1636    1536
CTETRA     12202       1    2866    5213    4793    5881
CTETRA     12203       1    2387    2388     256    1627
CTETRA     12204       1    2461     398     408    2460
CTETRA     12205       1    1773    1320    2018    1147
CTETRA     12206       1    1793    1794    5601    5602
CTETRA     12207       1    1793     287    5714     286
CTETRA     12208       1     293     286    1811     296
CTETRA     12209       1    1793    5714     287    5602
CTETRA     12210       1    1793    5714    1798     286
CTETRA     12211       1    5112    5057    5658    3276
CTETRA     12212       1     287    5714     286    1811
CTETRA     12213       1     287     286     296    1811
CTETRA     12214       1    2257    2515    2752    4984
CTETRA     12215       1    1409    1305    1408    1406
CTETRA     12216       1    4744    2477    2242    2637
CTETRA     12217       1     650    5283    5276    5220
CTETRA     12218       1     103    3636    3623    3631
CTETRA     12219       1    2938    5311    5402    5312
CTETRA     12220       1    1897    5407    5401    5406
CTETRA     12221       1    1673    2866    1676    4756
CTETRA     12222       1    2866    5881    5246    5213
CTETRA     12223       1       8     282     279     280
CTETRA     12224       1    2257    2752    4931    4984
CTETRA     12225       1    2786    2332    2851    2328
CTETRA     12226       1     182    2001      32    1878
CTETRA     12227       1     656     133    1479     134
CTETRA     12228       1    2343     554    4607    4624
CTETRA     12229       1    2589    4797    4794    4788
CTETRA     12230       1     955     181     991    2915
CTETRA     12231       1    2325    3237    3257    3238
CTETRA     12232       1    1707    3257    3256    3246
CTETRA     12233       1    2036    3280    3263    3279
CTETRA     12234       1    2256    4930    2257    4947
CTETRA     12235       1     933     930    1492    2645
CTETRA     12236       1    1492     933    1513     921
CTETRA     12237       1    4826    5872    5399    5871
CTETRA     12238       1    1477    5411    5407    5406
CTETRA     12239       1    2652    1152     685     335
CTETRA     12240       1    1643     549    2497    1649
CTETRA     12241       1    2224    1868    1842    4669
CTETRA     12242       1    2464    5173    5170    5174
CTETRA     12243       1    1227     756    1645     302
CTETRA     12244       1    1642    1650    1646    1647
CTETRA     12245       1    1139    1165    1645    1164
CTETRA     12246       1     722     817    1934     424
CTETRA     12247       1    1643    2768     305     549
CTETRA     12248       1    1650     710    1472    1617
CTETRA     12249       1    1650    1141    1617    2496
CTETRA     12250       1    2059    2062    1227    2064
CTETRA     12251       1     399     396     903     406
CTETRA     12252       1     741    5094    5091    1893
CTETRA     12253       1    2888    3248    3249    3253
CTETRA     12254       1    1000    1436     899     958
CTETRA     12255       1    2455    5113    5104    5114
CTETRA     12256       1    1821    1820    1571    3240
CTETRA     12257       1    2436    3254    3241    3240
CTETRA     12258       1     895    1775     899     893
CTETRA     12259       1    1775    2213     485    2191
CTETRA     12260       1     861    4174    4173    4177
CTETRA     12261       1    1011    2257    2515    2752
CTETRA     12262       1    2440     323    4126    4176
CTETRA     12263       1    1055    5254    5255    5238
CTETRA     12264       1    1522     154    2521     156
CTETRA     12265       1    2464    2746    5169    5171
CTETRA     12266       1    2779    4745    4751    4752
CTETRA     12267       1    2131    5279    5217    5216
CTETRA     12268       1     683    3632    3361    3360
CTETRA     12269       1     665     537     627     156
CTETRA     12270       1     104    3630    3633    3634
CTETRA     12271       1     154    2521     658    2052
CTETRA     12272       1    3621    5859    5276    5277
CTETRA     12273       1    2609    4271    4268    4180
CTETRA     12274       1     156    2521     665     154
CTETRA     12275       1    2409    4271    4270    4267
CTETRA     12276       1     202    1715    1716    1857
CTETRA     12277       1    2487    3855    3818    3853
CTETRA     12278       1     439    2752    2515    2160
CTETRA     12279       1    1714    1717    1007     258
CTETRA     12280       1     625     201     624    1715
CTETRA     12281       1     794     367     368    1846
CTETRA     12282       1     786    1997     797     781
CTETRA     12283       1     794     368     367     798
CTETRA     12284       1      10      24      25     208
CTETRA     12285       1     625    1445     795     367
CTETRA     12286       1    3277    3276    5658    5057
CTETRA     12287       1    1445    2476    2922    2116
CTETRA     12288       1     135    2258    2257    2753
CTETRA     12289       1    1398    2493    2087    2230
CTETRA     12290       1     407    1264     401     197
CTETRA     12291       1     440    2651    5088    5082
CTETRA     12292       1    1263    2211    1264     601
CTETRA     12293       1    1263     656    1267    1303
CTETRA     12294       1    3066    3248    3275    3249
CTETRA     12295       1     118     505      82     119
CTETRA     12296       1    1213    1212    2805    2730
CTETRA     12297       1     796    4709    4737    4728
CTETRA     12298       1    1409    2362    1882    1406
CTETRA     12299       1    1410    5271    5272    5270
CTETRA     12300       1     780     620     782     618
CTETRA     12301       1     117    1964     119     595
CTETRA     12302       1      87    2090    1047    1671
CTETRA     12303       1    1054    5238    5239    5217
CTETRA     12304       1    2640     823    1004    2900
CTETRA     12305       1    1755    2590    2381    1501
CTETRA     12306       1     253    1462    1843    1842
CTETRA     12307       1     637    1826    1258     353
CTETRA     12308       1     824     353     826     352
CTETRA     12309       1     692     176     175     691
CTETRA     12310       1    1859     511    2090    1294
CTETRA     12311       1    1054    5217    5218    5238
CTETRA     12312       1    2478    2372    2650    1696
CTETRA     12313       1     683    3632    3360    3630
CTETRA     12314       1     897    2833    2004     932
CTETRA     12315       1     636     634     635     862
CTETRA     12316       1    3958    5632    5631    3255
CTETRA     12317       1    2005    3280    3281    3272
CTETRA     12318       1     748      45     750     856
CTETRA     12319       1    1771    3255    3258    3235
CTETRA     12320       1     927    3934    2000    3933
CTETRA     12321       1    2590    1112     638     863
CTETRA     12322       1    1058    5217    5239    5216
CTETRA     12323       1    1276     320    2440    1118
CTETRA     12324       1     106     100     542     717
CTETRA     12325       1     652    5285    5282    5281
CTETRA     12326       1    2762    2848    5231    2836
CTETRA     12327       1     920    1450    2889     919
CTETRA     12328       1    1318    5913    1145    3431
CTETRA     12329       1    2427    4413    4412    4420
CTETRA     12330       1     423    1052     652    1050
CTETRA     12331       1    1273    2422    1276     320
CTETRA     12332       1    1378    4647    4629    4628
CTETRA     12333       1     717     718      95     320
CTETRA     12334       1    1276    1118    2440    2710
CTETRA     12335       1     320    2545    1117    1116
CTETRA     12336       1    2272    3783    3775    3774
CTETRA     12337       1    1116     320     843    1118
CTETRA     12338       1     718     320    2545    1117
CTETRA     12339       1    2274    3783    3793    3788
CTETRA     12340       1    4628     471     472    4610
CTETRA     12341       1    2274    3783    3788    3775
CTETRA     12342       1     515    2598      69     520
CTETRA     12343       1    2996    4137    4138    4126
CTETRA     12344       1    2546    2452    4173     861
CTETRA     12345       1    2875    5021    5000    5020
CTETRA     12346       1     126     529     530     531
CTETRA     12347       1     127     273     284     538
CTETRA     12348       1    4142    2875    5020    2212
CTETRA     12349       1     845    5179    1277    2554
CTETRA     12350       1     874     540    1796    1798
CTETRA     12351       1    3067    3829    3830    3833
CTETRA     12352       1    2440    4166    4176    4126
CTETRA     12353       1    1117    4166    4165    4173
CTETRA     12354       1    2452    4166    4173    4176
CTETRA     12355       1     521    1796     540     538
CTETRA     12356       1     919    1485     926     922
CTETRA     12357       1    2950    1805    1814    1783
CTETRA     12358       1     323    4176    4127    4126
CTETRA     12359       1    2310    3148    3149    3168
CTETRA     12360       1     325     319    2030     318
CTETRA     12361       1    3181    3172    2307    3148
CTETRA     12362       1     874     528     540    1798
CTETRA     12363       1     186    2746    2464    5171
CTETRA     12364       1    4278    3484    5754    4235
CTETRA     12365       1     268     267     953     867
CTETRA     12366       1    3526    4235    5755    5754
CTETRA     12367       1    2785    2600    2906    4236
CTETRA     12368       1    2785    4236    4279    4277
CTETRA     12369       1     150     153     152     156
CTETRA     12370       1     900    2094    2104     899
CTETRA     12371       1     152     537    3045     908
CTETRA     12372       1    1253    4278    4279    4235
CTETRA     12373       1    3484    5754    5753    4278
CTETRA     12374       1    1626     909     536     535
CTETRA     12375       1     900    2104     898     899
CTETRA     12376       1     535     152     908     537
CTETRA     12377       1    5000    5786    5787    4124
CTETRA     12378       1    2804    5000    5787    4124
CTETRA     12379       1     475     900    1059     478
CTETRA     12380       1    1116    4168    4167    4172
CTETRA     12381       1    2306    2146    2307    2308
CTETRA     12382       1    2875    5020     526    5021
CTETRA     12383       1    2804    1118    4124    4168
CTETRA     12384       1    1435     409     542     378
CTETRA     12385       1    3003    3151    3145    3146
CTETRA     12386       1    2059     789     276    2063
CTETRA     12387       1    2146    2144    2147    2308
CTETRA     12388       1    1822    3003    1458    1823
CTETRA     12389       1     182    1981    1982     181
CTETRA     12390       1    3073    3178    3179    3105
CTETRA     12391       1    2265    2389    2263    2353
CTETRA     12392       1    2570    3171    3133    3170
CTETRA     12393       1    2975    3110    3109    3153
CTETRA     12394       1    2998    3152    3136    3151
CTETRA     12395       1     953     940     884     960
CTETRA     12396       1     317    1606     329     328
CTETRA     12397       1     187    3107    3106    3208
CTETRA     12398       1    2050    4421     642    2482
CTETRA     12399       1    1324    1875    1319    2340
CTETRA     12400       1    1323     936    1318    1324
CTETRA     12401       1     433    1527    1941    1526
CTETRA     12402       1    2957    4268    4286    4284
CTETRA     12403       1    2682    3522    3513    3514
CTETRA     12404       1    2224    4670    4650    4669
CTETRA     12405       1     527    5197    5196    5200
CTETRA     12406       1    1773     280    1146    1147
CTETRA     12407       1     190     198     200     196
CTETRA     12408       1    1439    2108    4311    5682
CTETRA     12409       1     890    2853    1453    2948
CTETRA     12410       1    1439    3303    2108    5682
CTETRA     12411       1    2441    5275    5216    5215
CTETRA     12412       1    1439    2861    4316    4311
CTETRA     12413       1    1439    1437    4317    4316
CTETRA     12414       1    1408    4708    4712    4717
CTETRA     12415       1    2027    1439    1436    2105
CTETRA     12416       1    1439    5680    2105    5681
CTETRA     12417       1    1371    1503    4820    4823
CTETRA     12418       1    1899    5389    5400    5401
CTETRA     12419       1    1463    1506    4812    1868
CTETRA     12420       1    2464    3208    5668    3107
CTETRA     12421       1    1740    3499    3498    3509
CTETRA     12422       1    2223    4632    4631    4650
CTETRA     12423       1    2101    1547    2327    2107
CTETRA     12424       1     193    1439    1437    1436
CTETRA     12425       1    2027    1436    1439    2108
CTETRA     12426       1    2937    4248    4237    4238
CTETRA     12427       1    1016    1035    1563    1038
CTETRA     12428       1    1804    4286    4267    4289
CTETRA     12429       1     497     489     486     496
CTETRA     12430       1    1593    1564    1495    4252
CTETRA     12431       1    1014    1032    1017    1902
CTETRA     12432       1    1803    4288    4238    4237
CTETRA     12433       1    2023     496     486     489
CTETRA     12434       1     355    4696    2523    2067
CTETRA     12435       1    2942    5388    5389    5392
CTETRA     12436       1    1042    1038    1034    2214
CTETRA     12437       1    1585    1496     949    1549
CTETRA     12438       1    1365    2097    1482    2092
CTETRA     12439       1    1886    1399    2072    1682
CTETRA     12440       1    1909    1663    1903    1876
CTETRA     12441       1    1571    3190    3239    3191
CTETRA     12442       1    2888    3248    3251    3247
CTETRA     12443       1    3993    2927    3994    2457
CTETRA     12444       1    1774    3949    3991    3964
CTETRA     12445       1     949    5366    1496    5386
CTETRA     12446       1    1206    3275    3248    3273
CTETRA     12447       1     949     430    5363     432
CTETRA     12448       1     949     430    1595    5364
CTETRA     12449       1    2734    2313    3172    3176
CTETRA     12450       1    2566    2568    1720    3133
CTETRA     12451       1     949    5364    1595    5366
CTETRA     12452       1    2306    3147    3181    3148
CTETRA     12453       1     949     950    5363    5367
CTETRA     12454       1    1392    1006    1731    1998
CTETRA     12455       1     787    1731    1007    1997
CTETRA     12456       1    3033    4522    4503    4504
CTETRA     12457       1    1865    5399    5357    5871
CTETRA     12458       1    1119     733     561    2007
CTETRA     12459       1    2799    4826    1866    4825
CTETRA     12460       1    1865    5358    5410    1476
CTETRA     12461       1     563    5409    5399    5398
CTETRA     12462       1    2229    2097    2862     598
CTETRA     12463       1    2138    2993    1750     759
CTETRA     12464       1     710     969    1472    1617
CTETRA     12465       1     804     709    1135     704
CTETRA     12466       1    1852    4906    4905    4912
CTETRA     12467       1     597    5570    5594    5571
CTETRA     12468       1    1767     387    2297    2295
CTETRA     12469       1    1767     709    2748    2296
CTETRA     12470       1     575    2171     577     576
CTETRA     12471       1    2868    5056    1440    1522
CTETRA     12472       1    3066    3275    3277    3276
CTETRA     12473       1     703    1137     709     704
CTETRA     12474       1     963    1899    3044    5406
CTETRA     12475       1     562    5410    5409    5408
CTETRA     12476       1     966     502    1196     965
CTETRA     12477       1    2561    5407    5408    5403
CTETRA     12478       1    2566    2567    2568    4033
CTETRA     12479       1    1781    1786    1785    1784
CTETRA     12480       1     722    3360    3403    3359
CTETRA     12481       1    2007    2993     759    4889
CTETRA     12482       1    1054    5217    5281    5218
CTETRA     12483       1    2142    1467    2091    2135
CTETRA     12484       1    2896    5112    3250    3276
CTETRA     12485       1    1776    1781    1467    5516
CTETRA     12486       1    1752    3338    3074    3307
CTETRA     12487       1    2524    2430    5139    2506
CTETRA     12488       1    1821    3239    3253    3240
CTETRA     12489       1    1781    1786    1784    1926
CTETRA     12490       1    2507    5122    1169    5119
CTETRA     12491       1    1704    3247    3246    3282
CTETRA     12492       1    1705    3245    3281    3246
CTETRA     12493       1    3012    3266    3278    3265
CTETRA     12494       1    1781    1467    5516    2135
CTETRA     12495       1     982    1995    3460    2932
CTETRA     12496       1    2546    4165    4178    4173
CTETRA     12497       1    3021    2373    2544    5194
CTETRA     12498       1    2093    1488    2097    1490
CTETRA     12499       1    1776    1781    5515    5514
CTETRA     12500       1    2310    3168    3149    3167
CTETRA     12501       1    2957    4286    4287    4284
CTETRA     12502       1    2974    4268    4271    4267
CTETRA     12503       1    1467    1776    5516    5493
CTETRA     12504       1    1804    4288    4286    4289
CTETRA     12505       1    1789     238    1233    1139
CTETRA     12506       1     428    1027    1207    1026
CTETRA     12507       1     652    5281    5282    5218
CTETRA     12508       1     234     245    1225     247
CTETRA     12509       1    2566    4033    5643    4037
CTETRA     12510       1    2566    1720    3138    3133
CTETRA     12511       1    2566    4033    3144    5643
CTETRA     12512       1    2029    3285    3284    3304
CTETRA     12513       1    2059    1227     277     276
CTETRA     12514       1    2673    1193    2294    2295
CTETRA     12515       1     377     793     789    1175
CTETRA     12516       1     650     666    2282    5221
CTETRA     12517       1     650    5277    5276    5283
CTETRA     12518       1    4052    5646    3139    4054
CTETRA     12519       1    2948    3136    3139    3141
CTETRA     12520       1    1184     579    1172     583
CTETRA     12521       1     890    2853    1454    1453
CTETRA     12522       1    5457    5433    1383    2445
CTETRA     12523       1    2853    4053    4054    4055
CTETRA     12524       1    1987     836     236    1184
CTETRA     12525       1    2622    3074    2367    3309
CTETRA     12526       1     248    2913    1172     583
CTETRA     12527       1     233     248    1174    2913
CTETRA     12528       1    1453    4053    2853    1454
CTETRA     12529       1    2561    5407    5403    5402
CTETRA     12530       1    1763    1898    2938    2587
CTETRA     12531       1    1897    5401    5407    5402
CTETRA     12532       1    2163    1186    1187     236
CTETRA     12533       1    2580    1301    4200    4199
CTETRA     12534       1     580    2913    2983    2225
CTETRA     12535       1    1176    1988    3083     244
CTETRA     12536       1     159    3281    3282    3246
CTETRA     12537       1    1953     566    2475    2779
CTETRA     12538       1     814    3237    3189    3188
CTETRA     12539       1    3264     158    2035    3279
CTETRA     12540       1     336     331     338    1150
CTETRA     12541       1    2886     272    1289    2887
CTETRA     12542       1    1900    5389    5390    5393
CTETRA     12543       1    2559    5403    5408    5404
CTETRA     12544       1    1802    4267    4266    4289
CTETRA     12545       1     813     820    2143     725
CTETRA     12546       1     676     680     681     677
CTETRA     12547       1    2107    2425    2424    3516
CTETRA     12548       1    1896    1899    1900    2942
CTETRA     12549       1    1900    5389    5401    5390
CTETRA     12550       1    1175    3030     793    2060
CTETRA     12551       1    2889    2452    4174    4176
CTETRA     12552       1    3021    5182    5181    5194
CTETRA     12553       1     847     731     725    1289
CTETRA     12554       1    1384    3163    3168    3164
CTETRA     12555       1    1286    1295    1291    1287
CTETRA     12556       1    2411    3572    3579    3571
CTETRA     12557       1     236     447     446    1989
CTETRA     12558       1     864    4769    4777    4770
CTETRA     12559       1    1725     509     862    1310
CTETRA     12560       1     235     248    2225    1174
CTETRA     12561       1    2538    3599    3598    3625
CTETRA     12562       1    3074    3338    2365    3337
CTETRA     12563       1    2615    3572    3573    3580
CTETRA     12564       1    1431    1459    2856    1185
CTETRA     12565       1     827    1883    2398    2020
CTETRA     12566       1    2280     247    3040    1185
CTETRA     12567       1    1402    1225    3072    3065
CTETRA     12568       1    1021     235     569    1024
CTETRA     12569       1    1185    1459    2856    2280
CTETRA     12570       1    5062    5656    3290    5655
CTETRA     12571       1    1416    1556    2636    2163
CTETRA     12572       1    2536    2535    2081    2537
CTETRA     12573       1    1384    3158    3163    3164
CTETRA     12574       1     445     446     246     447
CTETRA     12575       1    2310    3163    3148    3168
CTETRA     12576       1    1018     570    1024     569
CTETRA     12577       1     236    2163     446    1187
CTETRA     12578       1     236     836    2163    1186
CTETRA     12579       1    2522    4807    4808    4806
CTETRA     12580       1    2580    3679    4199    5750
CTETRA     12581       1    3555    3551    2959    3489
CTETRA     12582       1    1155    3038    1971    3089
CTETRA     12583       1    2040    3273    3278    3275
CTETRA     12584       1    1212    1722    2901    1544
CTETRA     12585       1     145    1539    3069    1541
CTETRA     12586       1    2970    5058    5062    3290
CTETRA     12587       1    2359    3923    3922    3988
CTETRA     12588       1     812    1201    1154    1155
CTETRA     12589       1     380     793    1175    3030
CTETRA     12590       1      90     380     377     376
CTETRA     12591       1    1516    2681    2359    3923
CTETRA     12592       1    2059    1227    2062    2065
CTETRA     12593       1     664    5293    5861    5269
CTETRA     12594       1      93    2791    2438    2684
CTETRA     12595       1     260    5291    5267    5266
CTETRA     12596       1     264    5267    5280    5266
CTETRA     12597       1    2416    1209    3637    3357
CTETRA     12598       1    2580    1338    1284    1301
CTETRA     12599       1     789     276    2063     793
CTETRA     12600       1     234     238    1174    1175
CTETRA     12601       1     842    5294    5292    5291
CTETRA     12602       1    2998    3157    3152    3151
CTETRA     12603       1     377    1175     380     793
CTETRA     12604       1    1456    4043    3985    4044
CTETRA     12605       1    3003    2308    3146    3145
CTETRA     12606       1     789    1175     793    2060
CTETRA     12607       1    2714    2552    2554    5183
CTETRA     12608       1     109    3021    2735    2378
CTETRA     12609       1    2059     277    2065    2061
CTETRA     12610       1    1461    4828    4831    4813
CTETRA     12611       1      98     277     276    2061
CTETRA     12612       1    5411    5358    1476    5410
CTETRA     12613       1    1226     765    1076    2553
CTETRA     12614       1     563    2559     562    5409
CTETRA     12615       1     682    1096    2010     679
CTETRA     12616       1    2799    1866    2032    4825
CTETRA     12617       1     987     985    1098     362
CTETRA     12618       1    2324    1094    1093     790
CTETRA     12619       1     818    5267    5285    5280
CTETRA     12620       1    2010    3086    1295    1287
CTETRA     12621       1     652    5282    5284    5283
CTETRA     12622       1    3404    1934     683     722
CTETRA     12623       1     683     722     632    3360
CTETRA     12624       1    2580    3744    1334    1284
CTETRA     12625       1    1749    2743    2921    2331
CTETRA     12626       1     564    2329    1313    1092
CTETRA     12627       1     434     436     396     439
CTETRA     12628       1     476    5072    5070    5075
CTETRA     12629       1    2019    2082     626    5059
CTETRA     12630       1    2103    2104    3297    3294
CTETRA     12631       1     158    3265    3274    3264
CTETRA     12632       1    2970    3289    3290    3265
CTETRA     12633       1    2257    1011     991     992
CTETRA     12634       1    2324     790    1093     985
CTETRA     12635       1    2356    2216    3092    1596
CTETRA     12636       1     159    3281    3280    3279
CTETRA     12637       1    2356    2216    1986    3092
CTETRA     12638       1    2217    4016    4023    3979
CTETRA     12639       1    1984    3093    2356    1986
CTETRA     12640       1    2979     800    2895    1984
CTETRA     12641       1     708     706     705     805
CTETRA     12642       1    1984     804    2356     800
CTETRA     12643       1    2600    4236    4277    4237
CTETRA     12644       1    1253    3513    3526    3528
CTETRA     12645       1     391     804    1956    1332
CTETRA     12646       1    1735    1736    2586    1737
CTETRA     12647       1    1990    2942    2215    1899
CTETRA     12648       1    2906    4237    2937    4249
CTETRA     12649       1    1078    1183    2763    1837
CTETRA     12650       1    1739    2940    1086    2817
CTETRA     12651       1    1739    2585    2817    2933
CTETRA     12652       1    1763    1739    2940    1086
CTETRA     12653       1    1735    1741    1737    2585
CTETRA     12654       1    5785    5020    4139    5786
CTETRA     12655       1     847     333     846     681
CTETRA     12656       1    1286    1290     725    2697
CTETRA     12657       1     806    3078    1721    1155
CTETRA     12658       1     680     686     809     678
CTETRA     12659       1    2440    4125    4166    4126
CTETRA     12660       1    1096     987    1269     679
CTETRA     12661       1    2710    1118    2875     526
CTETRA     12662       1    2875    4139    4124    4125
CTETRA     12663       1    2010     679    2185    1288
CTETRA     12664       1    1150     336    1149     338
CTETRA     12665       1     851    2421     853    2678
CTETRA     12666       1    2575    4604    4622    4605
CTETRA     12667       1    1275     846    2010    1295
CTETRA     12668       1    3074    2367    3309    3337
CTETRA     12669       1    2931    3472    3473    3614
CTETRA     12670       1     610    2031    2741    2177
CTETRA     12671       1     602    2168    1268    2858
CTETRA     12672       1    2619     854    2984    2614
CTETRA     12673       1    1268    1265    4976    4980
CTETRA     12674       1    1268    4977    2858    2168
CTETRA     12675       1    1268    2782    4977    4976
CTETRA     12676       1    2580    3743    1599    1334
CTETRA     12677       1    1865    5372    5358    1476
CTETRA     12678       1    1476    5371    5358    5359
CTETRA     12679       1    2211    1268    1265    2782
CTETRA     12680       1    5357    1865    4830    4832
CTETRA     12681       1    1477    5407    5411    5408
CTETRA     12682       1    1268    4980    1266    1265
CTETRA     12683       1     979    2424     230    2695
CTETRA     12684       1    1804    4286    4288    4287
CTETRA     12685       1    1796     515    1210     521
CTETRA     12686       1    2580    1334    3744    3743
CTETRA     12687       1     535     388     168     536
CTETRA     12688       1     152     626     476     908
CTETRA     12689       1     537     152    3045     627
CTETRA     12690       1    1992    3267    3261    3271
CTETRA     12691       1    3939    2840    3932    3940
CTETRA     12692       1     535     537     908     536
CTETRA     12693       1     627     153     156     152
CTETRA     12694       1     993    5285    5281    5280
CTETRA     12695       1    2922    4714    4724    4723
CTETRA     12696       1    1807    3165    3168    3167
CTETRA     12697       1    2145    2147    2307    2146
CTETRA     12698       1    1387    3164    3165    3160
CTETRA     12699       1     593     592    1878    2815
CTETRA     12700       1    1008    1221    1207    1027
CTETRA     12701       1     429    1207    2346     275
CTETRA     12702       1      81    1091     785     618
CTETRA     12703       1    1412    5275    5274    5278
CTETRA     12704       1    2432    4871    1894    4451
CTETRA     12705       1      27      37      39    1394
CTETRA     12706       1    1118    4125    4168    4166
CTETRA     12707       1    2663    2812     719    4070
CTETRA     12708       1    2489    2980     339    1955
CTETRA     12709       1     332    1295     481     272
CTETRA     12710       1    1180    3554    3542    3552
CTETRA     12711       1    2396    5356    5353    5352
CTETRA     12712       1    2489    1329     337    2981
CTETRA     12713       1    2919    5352    5353    5345
CTETRA     12714       1    1062    4273    4269    4274
CTETRA     12715       1    2409    4271    4272    4270
CTETRA     12716       1    1539    1538    1954    2976
CTETRA     12717       1    2609    4271    4180    4179
CTETRA     12718       1    4634    5805    5806    4272
CTETRA     12719       1    2408    4272    5806    4269
CTETRA     12720       1    1130    4274    4673    5808
CTETRA     12721       1    2423    4673    4672    4704
CTETRA     12722       1    1957     729    2882    3031
CTETRA     12723       1     679     813     846     681
CTETRA     12724       1    1200    2924    1955    3070
CTETRA     12725       1    2219    4668    4649    4648
CTETRA     12726       1     585    2133     586    2953
CTETRA     12727       1     137     143     148     147
CTETRA     12728       1    3526    3527    5755    4250
CTETRA     12729       1    1254    3513    3528    3514
CTETRA     12730       1     728    1984     391    1332
CTETRA     12731       1     253    1423     255     222
CTETRA     12732       1    1230    4288    4277    4287
CTETRA     12733       1    2906    4249    4236    4237
CTETRA     12734       1    1594    4250    4253    5756
CTETRA     12735       1    1201    1943     143     142
CTETRA     12736       1     138     453     145    1972
CTETRA     12737       1    3012    3274    3265    3278
CTETRA     12738       1    1538    1197     800    2894
CTETRA     12739       1     332     730    1289     272
CTETRA     12740       1     731    2489     339    1955
CTETRA     12741       1    2040    5061    5057    3277
CTETRA     12742       1     645    2542     930    1484
CTETRA     12743       1    2875    5786    4139    5020
CTETRA     12744       1    1949    1392    1998    2952
CTETRA     12745       1    1526    5612    1527    5611
CTETRA     12746       1    1475      19    1468    1007
CTETRA     12747       1     158    3279    3264    3274
CTETRA     12748       1     181    1981    1982     282
CTETRA     12749       1     477     476    5075     478
CTETRA     12750       1    1323      11     207      13
CTETRA     12751       1     282    1942    1474     280
CTETRA     12752       1    2019    5063    5061    5062
CTETRA     12753       1    3012    3290    3266    3265
CTETRA     12754       1    2040    3266    3277    3278
CTETRA     12755       1    1474     208      25    1475
CTETRA     12756       1     661     172     165     173
CTETRA     12757       1     667     103    3631     104
CTETRA     12758       1    3017    2827    1753    1750
CTETRA     12759       1    2500    1856    5300    5297
CTETRA     12760       1     809    1753    2478    1153
CTETRA     12761       1     428    1209    1027    1026
CTETRA     12762       1     684     686     848     743
CTETRA     12763       1    2580    5750    3743    3679
CTETRA     12764       1    1994    3461    3440    3459
CTETRA     12765       1     790     985     173     984
CTETRA     12766       1      86    3686    3685    3750
CTETRA     12767       1    1153     686     684     678
CTETRA     12768       1    3024    4541    4553    4554
CTETRA     12769       1    3091    5850    3589    3485
CTETRA     12770       1    2174    2175    1009    2167
CTETRA     12771       1    1643     549    1649    2768
CTETRA     12772       1    1070     309     297    2264
CTETRA     12773       1     301    2262     305    2768
CTETRA     12774       1    1660    4240    4266    4273
CTETRA     12775       1    1710    1603     516    1606
CTETRA     12776       1    2133    2802    3386    3385
CTETRA     12777       1    1322    2383    3053    2382
CTETRA     12778       1    1643    1645    2638    1644
CTETRA     12779       1    3091    2972    2991    5339
CTETRA     12780       1    1477    5411    5406    5359
CTETRA     12781       1    5359    5358    1476    5411
CTETRA     12782       1    4702    1842    1463    4701
CTETRA     12783       1     301    2262    2768    2251
CTETRA     12784       1     160     162    2868    1522
CTETRA     12785       1     153     160    1440     156
CTETRA     12786       1     894    2033    1992    2005
CTETRA     12787       1    2970    3293    3289    3291
CTETRA     12788       1    2970    3289    3264    3288
CTETRA     12789       1     160     162    2040    2868
CTETRA     12790       1     160     156     162    1522
CTETRA     12791       1     153     626     627    1440
CTETRA     12792       1    1585    1549    1576    1550
CTETRA     12793       1    2942    5389    5388    5400
CTETRA     12794       1    2215    5400    5388    5361
CTETRA     12795       1     156     150     160     162
CTETRA     12796       1    1547    3530    3529    3534
CTETRA     12797       1     160     162    2883    2040
CTETRA     12798       1     608    1852    2208    2451
CTETRA     12799       1    1243    4283    4278    4282
CTETRA     12800       1    3758    5753    5752    4282
CTETRA     12801       1    2785    4277    2600    4236
CTETRA     12802       1     524    5200    5196    5198
CTETRA     12803       1     600    2031    2208    2741
CTETRA     12804       1     920    4156    4163    4155
CTETRA     12805       1    1679    1400    1668     606
CTETRA     12806       1    2165    4920    4922    4923
CTETRA     12807       1    2089    4298    4343    4299
CTETRA     12808       1    2207     609    2208    2058
CTETRA     12809       1     608     600    2208     609
CTETRA     12810       1    2208    2058    4899    4898
CTETRA     12811       1    2208    1908    2058    4898
CTETRA     12812       1    2518     842     817     260
CTETRA     12813       1     817    5292    5293    5268
CTETRA     12814       1    2668    2088     191    1682
CTETRA     12815       1    4351    1401    2493    2087
CTETRA     12816       1    2493    4354    2230    4352
CTETRA     12817       1     650     423     683    1934
CTETRA     12818       1    2493    4348    1680    4351
CTETRA     12819       1    2231    2318    2230    2394
CTETRA     12820       1    1518    1811    1907     528
CTETRA     12821       1    2493    4354    2087    2230
CTETRA     12822       1    4431    4859    5815    5814
CTETRA     12823       1     646    2603    2801    2109
CTETRA     12824       1     519    4400    4392    4399
CTETRA     12825       1     723    3818    3862    3863
CTETRA     12826       1    1669    1076    2740    2555
CTETRA     12827       1    2115    2312    4376    4375
CTETRA     12828       1    2488    3857    3817    3855
CTETRA     12829       1    1273    2545     320     843
CTETRA     12830       1    2800    4313    4312    5683
CTETRA     12831       1     195    2800    2861    2108
CTETRA     12832       1    1273     320    1260     843
CTETRA     12833       1    1669    2432    1157    1115
CTETRA     12834       1     982    3460    1995    3461
CTETRA     12835       1    2545    1157    2360    2361
CTETRA     12836       1    1159    1157    2360     720
CTETRA     12837       1    2908    3821    3866    3822
CTETRA     12838       1    3057    3091    5342    2972
CTETRA     12839       1    2691    3820    3865    3821
CTETRA     12840       1    2774    3884    3885    3865
CTETRA     12841       1    2692    3864    3820    3819
CTETRA     12842       1    2774    3885    3884    3911
CTETRA     12843       1     487     269    1568    1694
CTETRA     12844       1    1570    1329    2293    2756
CTETRA     12845       1    2009    1128      85    1129
CTETRA     12846       1    1608    1631    1607    1100
CTETRA     12847       1    2165    4920    4923    4921
CTETRA     12848       1    2164    5717    3443    3444
CTETRA     12849       1    2156    3443    3451    3444
CTETRA     12850       1    4329    4922    5829    5828
CTETRA     12851       1     452     501    2893    2989
CTETRA     12852       1    2782    4998    4999    4977
CTETRA     12853       1     917    1143     577     918
CTETRA     12854       1    4300    1682    4344    4299
CTETRA     12855       1    2598    3395    2802    4390
CTETRA     12856       1    1102    1105    1100    1103
CTETRA     12857       1    1629    1631    1100    1607
CTETRA     12858       1    3091    2514    3589    2991
CTETRA     12859       1    2328    1105    2851    1103
CTETRA     12860       1    1005    3654    3628    3644
CTETRA     12861       1    1351    1666    1353    1732
CTETRA     12862       1    1643    1165    1645    1139
CTETRA     12863       1    1104    1107    1103    1102
CTETRA     12864       1    2196    5533    5532    5556
CTETRA     12865       1    1393    3658    3655    3641
CTETRA     12866       1    2034     522    2000     485
CTETRA     12867       1    2117    1945    1946      17
CTETRA     12868       1    2202    2505    2201    4471
CTETRA     12869       1     341     347      48     348
CTETRA     12870       1    1404    1939    4838    4955
CTETRA     12871       1     585    2133      69     521
CTETRA     12872       1    5372    5357    5870    4832
CTETRA     12873       1    1865    5372    4832    5357
CTETRA     12874       1      65    1616     384     910
CTETRA     12875       1     710     969     971    1472
CTETRA     12876       1    2000     522    1999    3933
CTETRA     12877       1    1472    1617     969    3022
CTETRA     12878       1    2853    3139    5647    4054
CTETRA     12879       1     753    1232    1134    2458
CTETRA     12880       1    2853    3108    3139    3137
CTETRA     12881       1    2332    1840    2012     751
CTETRA     12882       1     215    1347    1234    1350
CTETRA     12883       1    2995    3109    3118    3108
CTETRA     12884       1     343    2759    1129    2009
CTETRA     12885       1     345     369     347    1354
CTETRA     12886       1     177    4639    4659    4640
CTETRA     12887       1    1979    3760    3761    3763
CTETRA     12888       1    3580    2614    3573    2615
CTETRA     12889       1    1548    2404    4796    4795
CTETRA     12890       1    1206    3273    3248    3247
CTETRA     12891       1    2624    5121    1168    5098
CTETRA     12892       1    1206    3247    3282    3273
CTETRA     12893       1     555     370    2997    2343
CTETRA     12894       1    2574      47    2343     370
CTETRA     12895       1    3063    3866    3865    3885
CTETRA     12896       1      43      50      47     555
CTETRA     12897       1    2332     751    2458     752
CTETRA     12898       1    2399    3884    3864    3883
CTETRA     12899       1    3091    5341    3589    5850
CTETRA     12900       1    2178    2931    2339     852
CTETRA     12901       1    3867     243    2908    3823
CTETRA     12902       1    1919    2178    2339    3046
CTETRA     12903       1    3063    3866    3821    3865
CTETRA     12904       1     111    1696     808    1274
CTETRA     12905       1    2838    3939    2840    3961
CTETRA     12906       1     854     779    2931    2614
CTETRA     12907       1     410     409     109    2714
CTETRA     12908       1    2379    4114    4097    4113
CTETRA     12909       1    3091    2972    5339    5342
CTETRA     12910       1    2950    1783    1813    1769
CTETRA     12911       1    1159    4178    4164    4072
CTETRA     12912       1    2360    4165    4164    4178
CTETRA     12913       1    1135     704     709    2297
CTETRA     12914       1    2130    2128    3983    2854
CTETRA     12915       1    2546    4173    4178    4177
CTETRA     12916       1     856      45      42     748
CTETRA     12917       1    2522    4808    4807    4697
CTETRA     12918       1    1193    2673     386    2914
CTETRA     12919       1    1515    1516    3989    3924
CTETRA     12920       1    1966    4809    4799    4798
CTETRA     12921       1    1515    2384    4161    4130
CTETRA     12922       1    2750    5355    5356    5348
CTETRA     12923       1    1515    4161    5733    4131
CTETRA     12924       1    1515    5733    3924    3990
CTETRA     12925       1    2948    1453    2857    4052
CTETRA     12926       1    1718    2857    3135    3003
CTETRA     12927       1    2857    3135    3141    3140
CTETRA     12928       1     917    1609     918     577
CTETRA     12929       1     575    3029    1666    1732
CTETRA     12930       1    2699    2488    2880     726
CTETRA     12931       1     391    1956     393     394
CTETRA     12932       1    2781    3294    3291    3288
CTETRA     12933       1     800    2716     802    2356
CTETRA     12934       1     799     801     800    1197
CTETRA     12935       1    2995    3109    3137    3153
CTETRA     12936       1     799     708     802     805
CTETRA     12937       1     393     394    3094     395
CTETRA     12938       1    2853    3137    2948    2995
CTETRA     12939       1     889    1806    2975    2995
CTETRA     12940       1     147     394     395    2882
CTETRA     12941       1    5058    3293    5655    3290
CTETRA     12942       1    3940    1999    2838    2840
CTETRA     12943       1    1991    1992    3267    3261
CTETRA     12944       1    1341    1168    1343    2465
CTETRA     12945       1    1278    2624    1340     440
CTETRA     12946       1    1171    2023     496     486
CTETRA     12947       1     664    5269    5861    3404
CTETRA     12948       1    2416    1209    1026    3637
CTETRA     12949       1     658    1579    2052     534
CTETRA     12950       1    1579    1341    1343    2465
CTETRA     12951       1    2192    3284    3260    3259
CTETRA     12952       1    1622    1925    1623    2141
CTETRA     12953       1    1593    1495    3532    3540
CTETRA     12954       1    2141     294    1621    1922
CTETRA     12955       1    1622    1621    1923    1920
CTETRA     12956       1    1202    1845    2602    1592
CTETRA     12957       1     842    5296    5293    5292
CTETRA     12958       1    2029    2028    2528    3285
CTETRA     12959       1    2033    2838    1993    1999
CTETRA     12960       1    2003    4892    4471    4891
CTETRA     12961       1    4946    2611    4938    4945
CTETRA     12962       1    1279    5727    5726    3658
CTETRA     12963       1    2435    2330    3467    3466
CTETRA     12964       1    1622    1925    2141    1786
CTETRA     12965       1     897    3243    2654    2004
CTETRA     12966       1     285    1362     287     296
CTETRA     12967       1    1928    2042    1929    1927
CTETRA     12968       1     311    1089    1087    1088
CTETRA     12969       1    3043    4137    4140    4138
CTETRA     12970       1    3043    4138    4142    4139
CTETRA     12971       1    1925    1927    1784    2043
CTETRA     12972       1    3527    5756    5755    4250
CTETRA     12973       1     194     200     198    2613
CTETRA     12974       1    2086    1397    2088    2089
CTETRA     12975       1    2086    2926    2662    2089
CTETRA     12976       1    2086    2662    2085    2089
CTETRA     12977       1    1001    1003    1850    1264
CTETRA     12978       1    2462    3462    3814    3463
CTETRA     12979       1     897    2833     932    1792
CTETRA     12980       1    2085    2653    2655    2164
CTETRA     12981       1    1993    2005    3271    1992
CTETRA     12982       1     897    3953    1792     932
CTETRA     12983       1    2085    2662    2164    2655
CTETRA     12984       1    1236    1685    1237    1219
CTETRA     12985       1    1280    3659    5726    3661
CTETRA     12986       1    2460    3813    3800    3801
CTETRA     12987       1    1733    2222    2223    2380
CTETRA     12988       1     974    4182    4284    4285
CTETRA     12989       1    2840    1991    3433    2192
CTETRA     12990       1    2606    4268    4284    4181
CTETRA     12991       1    2219    4649    4668    4669
CTETRA     12992       1     897    2654     932    2004
CTETRA     12993       1     897     932    3960    3953
CTETRA     12994       1    1638    5359    5370    5371
CTETRA     12995       1    1831    2596    1759    2846
CTETRA     12996       1    2211    2949    2858    2782
CTETRA     12997       1     700    1759     416    2502
CTETRA     12998       1    1576    5383    5384    5368
CTETRA     12999       1    1235     416    2503    2502
CTETRA     13000       1     176    4659    4690    4691
CTETRA     13001       1     774    1831    3050    2596
CTETRA     13002       1     699     418     977     975
CTETRA     13003       1    2999    3603    3614    3613
CTETRA     13004       1    1758    3076    2657    1339
CTETRA     13005       1    1758    2469    1299    1339
CTETRA     13006       1    2839    3620    3623    3624
CTETRA     13007       1    1531    2469    1758    1530
CTETRA     13008       1    3624     103    3636    3623
CTETRA     13009       1    2864    5237    5253    5254
CTETRA     13010       1    1758    1285    1283    1299
CTETRA     13011       1     470     469     467     471
CTETRA     13012       1     751    2678    2014    1420
CTETRA     13013       1    3017    2478    5019    4887
CTETRA     13014       1    2017     471     465     467
CTETRA     13015       1    1483    1365    5475    1364
CTETRA     13016       1     610    1398    1680     606
CTETRA     13017       1    2474    4949    3095    2814
CTETRA     13018       1     605    1397    2088     191
CTETRA     13019       1    2820    4789    4791    5328
CTETRA     13020       1    4789    5878    5328    5322
CTETRA     13021       1    4789    5328    5879    4791
CTETRA     13022       1    2820    5328    5330    5329
CTETRA     13023       1    1308    2321    3018    2410
CTETRA     13024       1    1491     205     204    1487
CTETRA     13025       1    1189    4771    4773    4770
CTETRA     13026       1    1328    3571    3581    3570
CTETRA     13027       1    2483    3472    3761    3473
CTETRA     13028       1    4253    5756    5757    3523
CTETRA     13029       1    1593    3540    3523    5757
CTETRA     13030       1    2254    2445    1481    2348
CTETRA     13031       1    2348    1383    5900    2393
CTETRA     13032       1    1270    1271     443     113
CTETRA     13033       1    1593    3523    3540    3532
CTETRA     13034       1    2423    4703    4704    4672
CTETRA     13035       1    1156    1943    1944    1161
CTETRA     13036       1    2350    5649    4056    4058
CTETRA     13037       1     738     746     745    1722
CTETRA     13038       1     112     125     595     115
CTETRA     13039       1    1213    1212    2900    2805
CTETRA     13040       1     122    1212     120     123
CTETRA     13041       1    2051    2610    2047    2480
CTETRA     13042       1    2051    2047    2233    2480
CTETRA     13043       1     524    5196    5195    5198
CTETRA     13044       1    1687    4844    4855    4843
CTETRA     13045       1    2050     141    4414    4421
CTETRA     13046       1    2209    4908    4910    4897
CTETRA     13047       1    4914    2205    1854    4844
CTETRA     13048       1     643    2051    2610    2047
CTETRA     13049       1     516    4376    4377    4378
CTETRA     13050       1    3382    3372    2311    3380
CTETRA     13051       1    2137    4295    4296    4324
CTETRA     13052       1    4426    2811    4419     647
CTETRA     13053       1    2205    4844    4914    5822
CTETRA     13054       1     643    2049    2048    2610
CTETRA     13055       1    1404     944     945    1405
CTETRA     13056       1    2051     140     141    2481
CTETRA     13057       1    1140     704    2908    2899
CTETRA     13058       1     241    1176     243    1140
CTETRA     13059       1    1624    5382    5378    5377
CTETRA     13060       1    1225     240     245     234
CTETRA     13061       1    2886    2887    3967    1745
CTETRA     13062       1    2520    3905    3879    3878
CTETRA     13063       1     233     241    1176    3028
CTETRA     13064       1     740    5091    5088    5090
CTETRA     13065       1    2642    3929    3936    3930
CTETRA     13066       1    1399    2949    2072    2971
CTETRA     13067       1     702    1137     704    2899
CTETRA     13068       1     763    1225     245    2127
CTETRA     13069       1    3032    3864    3884    3865
CTETRA     13070       1     445     702     704    1140
CTETRA     13071       1    4305    4309    3452    5780
CTETRA     13072       1     702    1140    2899     704
CTETRA     13073       1    1176    1987    3083    1988
CTETRA     13074       1    4305    3452    3453    5779
CTETRA     13075       1    1176    1988     244     243
CTETRA     13076       1    1663    2830    2023    1664
CTETRA     13077       1     194    2668    2086     191
CTETRA     13078       1    2231    2577    2318    2655
CTETRA     13079       1    2926    4306    4305    3454
CTETRA     13080       1    2926    3454    4297    4306
CTETRA     13081       1    2394    4354    2087    4341
CTETRA     13082       1    1656     211    1658    1874
CTETRA     13083       1    1014     488     498     497
CTETRA     13084       1    2884    3878    3879    3859
CTETRA     13085       1     270    1694     271    1590
CTETRA     13086       1    1306    1305    4707     970
CTETRA     13087       1    1014    1032     498     488
CTETRA     13088       1    1171    1664    1663    2023
CTETRA     13089       1    3610    3611    2917    2916
CTETRA     13090       1    1662    1873    1417    5136
CTETRA     13091       1     835    1379     837    1768
CTETRA     13092       1     313      15     882     365
CTETRA     13093       1    2811    4411    2801    4419
CTETRA     13094       1    2479    3425    4447    4425
CTETRA     13095       1      26    1468    1469    1478
CTETRA     13096       1    5760    4425    4447    3425
CTETRA     13097       1    1144      26    1474      25
CTETRA     13098       1    1385    3160    3161    3112
CTETRA     13099       1     717    1273     320    2422
CTETRA     13100       1    2085    2164    2869    2653
CTETRA     13101       1     926    4137    4136    4143
CTETRA     13102       1    1809    5198    5199    5200
CTETRA     13103       1    1148    1942     281     280
CTETRA     13104       1    1468    1475    1998    2305
CTETRA     13105       1    2838    3270    1993    3269
CTETRA     13106       1     475     901    1061    1059
CTETRA     13107       1    2493    4351    1680    1401
CTETRA     13108       1      26    2593    1478    1469
CTETRA     13109       1     522    3434    3932    3435
CTETRA     13110       1    1306    5271    2441    5214
CTETRA     13111       1    2908    3847    3821    3822
CTETRA     13112       1    2772    3911    3910    3976
CTETRA     13113       1    2987     801    4549    4551
CTETRA     13114       1     148     147    1957     394
CTETRA     13115       1    3062    3886    3885    3912
CTETRA     13116       1    3032    3865    3820    3864
CTETRA     13117       1     737     736    2473    3035
CTETRA     13118       1    2317    4861    4865    4859
CTETRA     13119       1    2599    2338    4433    2363
CTETRA     13120       1    3042    2317    4859    4431
CTETRA     13121       1     456    1325     453    2473
CTETRA     13122       1    2318    2655    2577    3352
CTETRA     13123       1     330     318     326    2994
CTETRA     13124       1    2929    2410    1311    2411
CTETRA     13125       1     624    5288    5264    5263
CTETRA     13126       1    1306    2441    5241    5214
CTETRA     13127       1    1840    1839     855      45
CTETRA     13128       1     798    4712    4711    4715
CTETRA     13129       1    1306    1835    4706    5241
CTETRA     13130       1    3091    1179    2514    2972
CTETRA     13131       1    1512     319     872    1511
CTETRA     13132       1    2337    2179    3046    2178
CTETRA     13133       1    2818    3503    3504    3502
CTETRA     13134       1    2819    5337    5350    5338
CTETRA     13135       1    2639    3018    3544    3543
CTETRA     13136       1    1976     457     461     463
CTETRA     13137       1     457    1979    1917     463
CTETRA     13138       1     963    2561    1897    5407
CTETRA     13139       1    1519    1521    4336    2154
CTETRA     13140       1    1084    5333    5350    5334
CTETRA     13141       1     145    3069    1539    1200
CTETRA     13142       1     344    1667    1195    1354
CTETRA     13143       1    3762    3663    3060    3664
CTETRA     13144       1    2230    4339    2318    2320
CTETRA     13145       1    3762    3760    3060    3763
CTETRA     13146       1     461     136     454     457
CTETRA     13147       1    2311    2041    2312    4389
CTETRA     13148       1    1266    4901    2177    4936
CTETRA     13149       1    2157    3448    3440    3447
CTETRA     13150       1    2811    2427    1875    2605
CTETRA     13151       1     139     452     501     136
CTETRA     13152       1    2966    4481    4587    4482
CTETRA     13153       1    3096    3864    3863    3883
CTETRA     13154       1     803     392     387     149
CTETRA     13155       1     322    2996    2710    2440
CTETRA     13156       1    2125     139     453    2966
CTETRA     13157       1     737    1918    3035     691
CTETRA     13158       1    1813    3114    3113    3162
CTETRA     13159       1     499    2139    5551    5552
CTETRA     13160       1     482     334    1341     480
CTETRA     13161       1    1341     482    3011    2624
CTETRA     13162       1    3901     792    1095    3929
CTETRA     13163       1    2462    3462    3661    5725
CTETRA     13164       1    2516    4985    4986    4969
CTETRA     13165       1    3814    1094    2921    3811
CTETRA     13166       1    2908    3866    3867    3822
CTETRA     13167       1    3062    3866    3885    3886
CTETRA     13168       1    1559    2214    2194    1038
CTETRA     13169       1    2881    5005    4872    5004
CTETRA     13170       1    1568     272    1295    2886
CTETRA     13171       1     171     665     169     658
CTETRA     13172       1    1569    1344    2886    1295
CTETRA     13173       1     666    2282    5230    2848
CTETRA     13174       1    2795    1729    2794    3620
CTETRA     13175       1    2762    3566    5856    5229
CTETRA     13176       1    2033    2000    2034     522
CTETRA     13177       1    1261    1264     407     865
CTETRA     13178       1    1515    3989    1514    4050
CTETRA     13179       1    1833    2683    2083    2359
CTETRA     13180       1    1516    3923    3988    3989
CTETRA     13181       1     922    4129    4128    4155
CTETRA     13182       1     717    1273     718     320
CTETRA     13183       1    2231    1907    2653    2085
CTETRA     13184       1    2233    4847    4853    4854
CTETRA     13185       1    1226    1403    1225    2702
CTETRA     13186       1    1613    2534    1628    1577
CTETRA     13187       1    5136    1665    2830    1663
CTETRA     13188       1    2338    2610    4436    4432
CTETRA     13189       1    1306    1410    1882    1305
CTETRA     13190       1    1613    2534    1610    1625
CTETRA     13191       1     218    1864    1460    1841
CTETRA     13192       1    2869    5717    5716    3445
CTETRA     13193       1    1521    2493    4336    2154
CTETRA     13194       1    4297    5778    3449    5777
CTETRA     13195       1    2149    4369    4925    4296
CTETRA     13196       1    4314    1886    1437    4301
CTETRA     13197       1    1638     254    3044    1476
CTETRA     13198       1    4297    3450    3449    5778
CTETRA     13199       1    1867     563    2559     562
CTETRA     13200       1    2388     256    1627    1638
CTETRA     13201       1    2387    1191    1627     256
CTETRA     13202       1    2218    4631    4630    4649
CTETRA     13203       1    1230    4285    4287    4276
CTETRA     13204       1    1615    4276    4275    4285
CTETRA     13205       1    1615    4275    4276    4283
CTETRA     13206       1    1244    1615    1229    4283
CTETRA     13207       1    5373    1628    5370    1638
CTETRA     13208       1    2573    2969    2082    2970
CTETRA     13209       1    2316    4852    2317    2234
CTETRA     13210       1    2388    1638    1476    1460
CTETRA     13211       1    2970    3291    3289    3288
CTETRA     13212       1    2970    3289    3293    3290
CTETRA     13213       1    1638    5373    1627    5375
CTETRA     13214       1     468     470    1315     469
CTETRA     13215       1    1369    1370    1372    1962
CTETRA     13216       1    1657    3210    3209    3213
CTETRA     13217       1    1697    1321    1762    1699
CTETRA     13218       1    5143    5666    5667    3214
CTETRA     13219       1    2818    5343    5344    5848
CTETRA     13220       1     417      20      21     981
CTETRA     13221       1    2818    5337    5344    5343
CTETRA     13222       1    2309    1458    1822    2935
CTETRA     13223       1    2316    2234    4851    4852
CTETRA     13224       1    1179    3541    3554    3486
CTETRA     13225       1     430     431     432    1497
CTETRA     13226       1    1497    3531    3530    3533
CTETRA     13227       1    2536    3172    2734    2313
CTETRA     13228       1    1499    3534    1547    2358
CTETRA     13229       1    1018    1823     570    2144
CTETRA     13230       1    1627    5374    5373    5377
CTETRA     13231       1    1628    5370    5369    5376
CTETRA     13232       1    2423    4703    4815    4704
CTETRA     13233       1    1022     411    1588     409
CTETRA     13234       1    1588     411     412     409
CTETRA     13235       1    1589     411    1654    1587
CTETRA     13236       1    1654    1429    3073    1589
CTETRA     13237       1    1700    2523    2522    2067
CTETRA     13238       1    2417    5315    5321    5314
CTETRA     13239       1    2021    5320    5348    5321
CTETRA     13240       1    1654    1589    3073    2841
CTETRA     13241       1    2939    3914    3913    3979
CTETRA     13242       1     636     687    1111    1311
CTETRA     13243       1    2692    3819    3820    3851
CTETRA     13244       1     350    1963     352    1361
CTETRA     13245       1     354     358    1815     357
CTETRA     13246       1    1239    1109     828     358
CTETRA     13247       1     231    1547    2107    2424
CTETRA     13248       1    2824    1718    3140    3134
CTETRA     13249       1    1551    4248    4247    4254
CTETRA     13250       1    2822    2322    1698    1242
CTETRA     13251       1    2398    2513    1836    1177
CTETRA     13252       1    2761    4799    2784    2404
CTETRA     13253       1    4697    2067    2523    4696
CTETRA     13254       1    2119    4697    4665    4696
CTETRA     13255       1    2977    5014    4881    5013
CTETRA     13256       1    1239     828    1308    1307
CTETRA     13257       1    2624    5098    5097    5121
CTETRA     13258       1    2507    5119    2831    5131
CTETRA     13259       1    2506    5138    5139    5133
CTETRA     13260       1    2194    1041    3201    2070
CTETRA     13261       1     359    1420    1242    1241
CTETRA     13262       1    4851    4858    1413    2316
CTETRA     13263       1    2459    3198    1572    3192
CTETRA     13264       1    1295    1291    1287    3086
CTETRA     13265       1    2719    5110    5111    5112
CTETRA     13266       1     177    4640    4659    4660
CTETRA     13267       1    2299    3570    3581    3577
CTETRA     13268       1    2813    4403    4402    4410
CTETRA     13269       1    1838    1307    1698    2322
CTETRA     13270       1     959    4639    4658    4659
CTETRA     13271       1    3088    4635    4617    4465
CTETRA     13272       1    2244    2272    2332    2851
CTETRA     13273       1     473     471    4628    4647
CTETRA     13274       1    1909    2525    1574    2526
CTETRA     13275       1    1427    1802    1800    1804
CTETRA     13276       1    1584    2134    1563    1571
CTETRA     13277       1    2981    5035    5014    5034
CTETRA     13278       1    2824    5644    4037    3138
CTETRA     13279       1    1723    1725    1724    1328
CTETRA     13280       1    1290    3908    3909    3882
CTETRA     13281       1    2687    3883    3909    3910
CTETRA     13282       1    3015    5124    5123    5125
CTETRA     13283       1     634     862    2407    1724
CTETRA     13284       1    2407    1724    1725    2298
CTETRA     13285       1    3062    3886    3912    3913
CTETRA     13286       1    2939    3979    3913    3978
CTETRA     13287       1     634     825    1443    2407
CTETRA     13288       1    3062    3867    3866    3886
CTETRA     13289       1    2407     491    1724    2298
CTETRA     13290       1    2312    4385    4386    4375
CTETRA     13291       1    2406     825    1446     860
CTETRA     13292       1    3368    4331    5774    3370
CTETRA     13293       1     352     824     353    1692
CTETRA     13294       1     350    1963    1361    2021
CTETRA     13295       1     354     355     356    1815
CTETRA     13296       1    1725    1311    1310     862
CTETRA     13297       1    2975    3116    3109    3110
CTETRA     13298       1    1450    2889     919     321
CTETRA     13299       1    3121    5651    4051    5650
CTETRA     13300       1    2995    2645    3116    2975
CTETRA     13301       1    1514    4051    4050    4056
CTETRA     13302       1    1514    4050    3989    4049
CTETRA     13303       1    2350    3117    1514    4056
CTETRA     13304       1    1455    1453     886    1454
CTETRA     13305       1    2369    3108    2995    3118
CTETRA     13306       1    2517    1843    4671    2434
CTETRA     13307       1    1802    4270    4266    4267
CTETRA     13308       1    1551    4239    1612    4247
CTETRA     13309       1     933    1833    1450     876
CTETRA     13310       1    5195    5785    5020    4142
CTETRA     13311       1    2384     933    1516    2681
CTETRA     13312       1    1553    2666     721    2867
CTETRA     13313       1    2667    1450    2711    2934
CTETRA     13314       1    2440    2452     323    4176
CTETRA     13315       1    1593    1564    4251    1546
CTETRA     13316       1    1450    2711     920    2667
CTETRA     13317       1    1496    4256    4252    4255
CTETRA     13318       1     232    1464     979     996
CTETRA     13319       1    1496    3539    1495    4252
CTETRA     13320       1    1546    4251    4248    4254
CTETRA     13321       1    2873    3757    3758    3483
CTETRA     13322       1    1396    4705    4816    4817
CTETRA     13323       1    1638    2388    5375    1627
CTETRA     13324       1    1841    1868    1463    1842
CTETRA     13325       1    2375    4834    4816    4835
CTETRA     13326       1    4243    1624    1396    4244
CTETRA     13327       1    1450    2711    2934    2681
CTETRA     13328       1    1638    5359    1476    3044
CTETRA     13329       1    5372    5375    5371    2388
CTETRA     13330       1     515    3367    2598    4383
CTETRA     13331       1    1716    1445    2413    2922
CTETRA     13332       1    1553    1450    1833    1554
CTETRA     13333       1    1554    2439    2791    2684
CTETRA     13334       1    1553    1450     321    2666
CTETRA     13335       1    1532    1529      56      58
CTETRA     13336       1     664     722    3403     633
CTETRA     13337       1    2509    3310    3342    3311
CTETRA     13338       1    1831    2565    2846    2581
CTETRA     13339       1     774    2503    3071    1312
CTETRA     13340       1    1333    1832    1683    1916
CTETRA     13341       1    1133    1104    1791    1134
CTETRA     13342       1    1887     543    1921    1228
CTETRA     13343       1     414    1235     415     416
CTETRA     13344       1    2578    4864    2316    4858
CTETRA     13345       1    4860    2316    4852    2317
CTETRA     13346       1     548     999    3006     998
CTETRA     13347       1    2080    2449    2079     998
CTETRA     13348       1    2933    1741    3506    2738
CTETRA     13349       1    3551    2959    3489    2946
CTETRA     13350       1    2959    1178    2513    3553
CTETRA     13351       1      71     547    2531    3006
CTETRA     13352       1     547    3082    2531    3006
CTETRA     13353       1     547    2531    3082    2767
CTETRA     13354       1    5375    5869    5868    4833
CTETRA     13355       1     553     546     549    2766
CTETRA     13356       1     547    3007     546    2766
CTETRA     13357       1    1234     465     214    1350
CTETRA     13358       1     215    2376     213    1218
CTETRA     13359       1    3036    1969     997    3690
CTETRA     13360       1    1667    2009     967    1631
CTETRA     13361       1    1932    2376     348     215
CTETRA     13362       1     348     347     344     341
CTETRA     13363       1      45    1840     856     855
CTETRA     13364       1    2411    3583    3579    3578
CTETRA     13365       1    1077    2395    3056    2680
CTETRA     13366       1    1215    1537    1216    2729
CTETRA     13367       1    2410    3545    3578    2929
CTETRA     13368       1    2501    1235    2503    2504
CTETRA     13369       1    2803    2615    3571    3572
CTETRA     13370       1    2639    3018    2321    3544
CTETRA     13371       1     348     213     215    2376
CTETRA     13372       1    3074    2365    2367    3337
CTETRA     13373       1     213     348     215    1350
CTETRA     13374       1    1133    1232    1104    1134
CTETRA     13375       1    5414    3306    3314    5687
CTETRA     13376       1    2286     749    2013      22
CTETRA     13377       1     297    2793    2797    2790
CTETRA     13378       1     813    2143     820    2520
CTETRA     13379       1    4987     592     761     759
CTETRA     13380       1    2478    4887    4466    4886
CTETRA     13381       1    2842    5228    5223    5224
CTETRA     13382       1     299     308    2345    3013
CTETRA     13383       1     848    5039    5018    5038
CTETRA     13384       1    2342    3316    2622    3317
CTETRA     13385       1     713      98    2791     715
CTETRA     13386       1    1073    2628    2264    1125
CTETRA     13387       1     302    1165     305     304
CTETRA     13388       1     385     383     384    2345
CTETRA     13389       1    2509    3311    3342    3348
CTETRA     13390       1    2367    2508    3335    3341
CTETRA     13391       1    2566    1719    2824    1720
CTETRA     13392       1    1374    5484    5460    5483
CTETRA     13393       1    2195    5442    5441    5465
CTETRA     13394       1     309    2798    2264    2628
CTETRA     13395       1    1480    1482    5477    5476
CTETRA     13396       1    2955    5533    5534    5510
CTETRA     13397       1    1752    3324    3307    3306
CTETRA     13398       1     872     540     874     528
CTETRA     13399       1    2824    1719    4040    2825
CTETRA     13400       1     871     528     874    1518
CTETRA     13401       1    4555    4563    4556    1817
CTETRA     13402       1    1913     946    1405    2234
CTETRA     13403       1    2273    3774    3775    3765
CTETRA     13404       1     452    2354    2986    3019
CTETRA     13405       1     175     177    1918     691
CTETRA     13406       1    2977    5014    5013    5034
CTETRA     13407       1    2754    5096    5035    5127
CTETRA     13408       1    2260    2311    2597    1910
CTETRA     13409       1     555      53      43      50
CTETRA     13410       1     359    1698    1242    1420
CTETRA     13411       1     262    1304     951    1409
CTETRA     13412       1    3096    3863    3864    3819
CTETRA     13413       1     253     222     255     254
CTETRA     13414       1     949     430    5364    5363
CTETRA     13415       1    2484    1968    2627     591
CTETRA     13416       1    1593    4252    4253    4251
CTETRA     13417       1    1546    4251    4253    4249
CTETRA     13418       1      43      51      53     555
CTETRA     13419       1     851    1420    1241    2678
CTETRA     13420       1      43      46      45     859
CTETRA     13421       1     910    2787    3005    4534
CTETRA     13422       1    1129    1127     858     459
CTETRA     13423       1    3036    4205    4067    4066
CTETRA     13424       1    2353    4106    4107    4081
CTETRA     13425       1      71      36    3008    2351
CTETRA     13426       1     739     737     745     455
CTETRA     13427       1    2103    3292    3291    3295
CTETRA     13428       1    1079    1078    1836    1838
CTETRA     13429       1    1347    2527     556    2120
CTETRA     13430       1    2969    3292    2103    5071
CTETRA     13431       1    2120    1347     472     465
CTETRA     13432       1    1412    2131    5279     264
CTETRA     13433       1    5204    5783    5784    4141
CTETRA     13434       1    3043    4140    4142    4138
CTETRA     13435       1     466      50    2120     465
CTETRA     13436       1     356     357    2190    2403
CTETRA     13437       1     555     556      53      50
CTETRA     13438       1    1914    5295    5296    5294
CTETRA     13439       1    1914    3407    5296    5863
CTETRA     13440       1     748    1421      45      48
CTETRA     13441       1    5296    5293    5862    3402
CTETRA     13442       1    1852    4912    4913    4906
CTETRA     13443       1    2154    4335    2493    4336
CTETRA     13444       1     356     357    2403    2189
CTETRA     13445       1     356    2189      53     357
CTETRA     13446       1    1845    1469      19     622
CTETRA     13447       1    1519    1517    4293    4337
CTETRA     13448       1    1981    1996     365    1846
CTETRA     13449       1    2208    4911    4905    4899
CTETRA     13450       1    1468    1844     622     621
CTETRA     13451       1    1008    1844    1006     621
CTETRA     13452       1    1356    2238    5609    5721
CTETRA     13453       1    2569    1583    1580    1719
CTETRA     13454       1    2144     570     574    2569
CTETRA     13455       1    2128    3983    3918    3917
CTETRA     13456       1    5375    5868    4835    4833
CTETRA     13457       1    2569    2144    1020     574
CTETRA     13458       1    5375    5372    5869    4832
CTETRA     13459       1    5375    4832    2388    5372
CTETRA     13460       1    2777    2607    1733    2380
CTETRA     13461       1    2388    5375    5371    1638
CTETRA     13462       1    1627    1191    4835    2375
CTETRA     13463       1    1018     570     574    2144
CTETRA     13464       1    1880    2822    2674    2285
CTETRA     13465       1    1977    3665    3664    3854
CTETRA     13466       1    2145     411    1654    1589
CTETRA     13467       1    1978    3760    3759    3785
CTETRA     13468       1    1022    2146    2145     411
CTETRA     13469       1    1020    2646    1661    2377
CTETRA     13470       1    2243    5552    5553    5529
CTETRA     13471       1    1604    4408    4400    4407
CTETRA     13472       1     776    2646    1031    1020
CTETRA     13473       1    1410    1411    5274    5270
CTETRA     13474       1    4909    4842    2860    4910
CTETRA     13475       1    1020    2377    2821    2571
CTETRA     13476       1    1019    1589    1020    1661
CTETRA     13477       1    2679    4638    4639    4620
CTETRA     13478       1     572     573     574    1064
CTETRA     13479       1    3068    3815    3840    3807
CTETRA     13480       1    4619    4620    2675    4602
CTETRA     13481       1    2143    3879    3880    3860
CTETRA     13482       1    2101    2102    2327     431
CTETRA     13483       1    2101    2106    2107    2327
CTETRA     13484       1    1788    3333    3322    3321
CTETRA     13485       1    2366    3333    3334    3336
CTETRA     13486       1     231    1738    2424    2107
CTETRA     13487       1    1787    3339    3321    3320
CTETRA     13488       1    1498     231    2358    1547
CTETRA     13489       1     231    2757    2358    2424
CTETRA     13490       1    2824    4039    4037    5644
CTETRA     13491       1     473    4628    4646    4647
CTETRA     13492       1    1924    4787    4788    4790
CTETRA     13493       1    4646    4628     473     472
CTETRA     13494       1    2350    3117    3118    3116
CTETRA     13495       1    1422    1611    1426     255
CTETRA     13496       1    3110    3116    3119    1391
CTETRA     13497       1    3118    3108    5648    4057
CTETRA     13498       1    1510    3121    3117    3120
CTETRA     13499       1    2369    3118    4057    3108
CTETRA     13500       1     790    3801    3802    3814
CTETRA     13501       1    1890    5095     390    1893
CTETRA     13502       1    2102     431    5391    2951
CTETRA     13503       1     232     230    2757     231
CTETRA     13504       1    2845    3017    4967    4988
CTETRA     13505       1    2088    2086    2668     191
CTETRA     13506       1     284       8     129     278
CTETRA     13507       1    2231    2085    2655    2394
CTETRA     13508       1    1811    2182    1518    2653
CTETRA     13509       1     283    1939    3081    2994
CTETRA     13510       1    2493    1680    4335    2154
CTETRA     13511       1     791    3800    3799    3900
CTETRA     13512       1    4984    4971    4970    2515
CTETRA     13513       1    2463    3462    5724    3813
CTETRA     13514       1     283     944     278     267
CTETRA     13515       1     529     296    2193    2364
CTETRA     13516       1     529    2364    1297    1296
CTETRA     13517       1    2775    1411     260     261
CTETRA     13518       1    1831    1884    1684    1685
CTETRA     13519       1    1336    1333    2122    1335
CTETRA     13520       1    1417    1873    1418    5156
CTETRA     13521       1    2922    4725    4722    4723
CTETRA     13522       1    1973    4725    2116    2922
CTETRA     13523       1    2121    1104    1791    2274
CTETRA     13524       1    1683    1600    1684    1832
CTETRA     13525       1    2599    5833    5811    4441
CTETRA     13526       1    2338    4440    4436    4438
CTETRA     13527       1    1232    1104    1134    2272
CTETRA     13528       1    2112    4677    4676    4724
CTETRA     13529       1    3081    4966    4965    4964
CTETRA     13530       1    4848    1937    2204    4849
CTETRA     13531       1    1017    1902     673    1222
CTETRA     13532       1    1930    2238    5610    5609
CTETRA     13533       1    2480    4434    4432    4433
CTETRA     13534       1    2539    1222    3233    2859
CTETRA     13535       1    2859    1658    2539    1904
CTETRA     13536       1    1655    1033    1432    1658
CTETRA     13537       1    1655    1429    1661    1656
CTETRA     13538       1    2306    2935    3163    1384
CTETRA     13539       1    1458    1806     890    2948
CTETRA     13540       1    1822    2572    2308    3003
CTETRA     13541       1    1838    2322    2959    1836
CTETRA     13542       1    1178    3487    3554    3553
CTETRA     13543       1    1085    2819    1182    2738
CTETRA     13544       1    3091    3485    3589    3541
CTETRA     13545       1    1457    2998    2857    3003
CTETRA     13546       1     378    1226     545    1435
CTETRA     13547       1    1837    3488    3498    3505
CTETRA     13548       1    1183    3488    3505    3487
CTETRA     13549       1    3550    2677    3561    3549
CTETRA     13550       1    2441    5240    5215    5216
CTETRA     13551       1    2824    4040    1719    4037
CTETRA     13552       1    2484    3763    3472    3471
CTETRA     13553       1    3603    2999     768    3613
CTETRA     13554       1    2414    3614    3603    3472
CTETRA     13555       1     888    2935    2309    1384
CTETRA     13556       1    1978    3777    3760    3785
CTETRA     13557       1     889     933    2995    2975
CTETRA     13558       1    2144    2145    2147    1589
CTETRA     13559       1    2490    4945    4898    4897
CTETRA     13560       1    2232    5555    5554    5578
CTETRA     13561       1     529    1297    2364    2193
CTETRA     13562       1    2653    2182    5715    1811
CTETRA     13563       1    2260    5714    2182    1798
CTETRA     13564       1     888     890    1458    1806
CTETRA     13565       1    2145    1022    2144    2146
CTETRA     13566       1    1021    1173    1024     381
CTETRA     13567       1     378     381     541     371
CTETRA     13568       1     174    4692    4691    4771
CTETRA     13569       1    2803    3615    3572    3571
CTETRA     13570       1    4772     864    1189    4770
CTETRA     13571       1    2146     409     411    1022
CTETRA     13572       1     952     970    1835    2637
CTETRA     13573       1     875     541     379     108
CTETRA     13574       1    2144    2569    2570    2572
CTETRA     13575       1    1334    1336    1284    3744
CTETRA     13576       1    1300    4201    4200    4211
CTETRA     13577       1    3717    5748    4209    5749
CTETRA     13578       1    1243    3513    1255    3483
CTETRA     13579       1    2144    2821    1589    2147
CTETRA     13580       1    2144    1583    2572    1823
CTETRA     13581       1    2461    5722    3799    5723
CTETRA     13582       1    2969    5058    5654    5071
CTETRA     13583       1    1085    2819    1179    1182
CTETRA     13584       1    2135    5540    5541    5517
CTETRA     13585       1    2928    4405    4397    3097
CTETRA     13586       1    4972    2159    4994    4993
CTETRA     13587       1    1086    1183    2738    1085
CTETRA     13588       1    2969     477    5071    2103
CTETRA     13589       1    2969    5058    3293    5654
CTETRA     13590       1    2533    5379    2534    5384
CTETRA     13591       1    1772    1760    5729    5728
CTETRA     13592       1    2461    3799    5722    3798
CTETRA     13593       1    1898     220    1763     219
CTETRA     13594       1    2533    1576    2534    1610
CTETRA     13595       1    1085    2972    3056    1177
CTETRA     13596       1    1095    3930    3903    3902
CTETRA     13597       1    1412    1411    5278    5274
CTETRA     13598       1     495    3937    3931    3930
CTETRA     13599       1    1085    1177    1178    1179
CTETRA     13600       1     998     999    3691    3731
CTETRA     13601       1    2767    3715    3712    3716
CTETRA     13602       1    2739    3699    3698    3709
CTETRA     13603       1    2709    3704    3697    3698
CTETRA     13604       1    2769    3698    3715    3709
CTETRA     13605       1    2962    3713    3712    3696
CTETRA     13606       1     329     327     538     540
CTETRA     13607       1    1404     940     960    1935
CTETRA     13608       1    2345    4529     383    4538
CTETRA     13609       1    2664    3918    3891    3917
CTETRA     13610       1    2359    3987    4048    3988
CTETRA     13611       1     885     960     940    1935
CTETRA     13612       1    1739    2817    2738    2933
CTETRA     13613       1    1180    3023    3061    3552
CTETRA     13614       1      11     655    1945     209
CTETRA     13615       1    1824     639    1826    2347
CTETRA     13616       1    1686    2578    1689    1688
CTETRA     13617       1     944     946     945    1405
CTETRA     13618       1    1431    1430    2856    1459
CTETRA     13619       1    1728    3598    3606    3616
CTETRA     13620       1     177    4659    4691    4660
CTETRA     13621       1     176    4691    4690    4773
CTETRA     13622       1    2323    2419    4661    4692
CTETRA     13623       1    2272    3782    3793    3783
CTETRA     13624       1     214    4594    4610    4611
CTETRA     13625       1     445     450    1138     449
CTETRA     13626       1    1533    4229    4234    4230
CTETRA     13627       1    1529    4234    4231    4230
CTETRA     13628       1    2295    2297    2296    3668
CTETRA     13629       1      89      97      90     372
CTETRA     13630       1    1151     678     806    1153
CTETRA     13631       1    3046    2178    2339    2337
CTETRA     13632       1    1184     836     236    1186
CTETRA     13633       1     579    1186     236     248
CTETRA     13634       1    3031    3863    3819    3818
CTETRA     13635       1     573    1031    1064     572
CTETRA     13636       1    1018    1020    1589    2144
CTETRA     13637       1     864    4776    4777    4769
CTETRA     13638       1     235     234    1174    1173
CTETRA     13639       1    2649    4687    4686    4732
CTETRA     13640       1    1173    1175    2225     380
CTETRA     13641       1     734    1974    1119     780
CTETRA     13642       1    2856    1185    2925    1431
CTETRA     13643       1    2575    2742    2188    1918
CTETRA     13644       1    2233    4853    4859    4854
CTETRA     13645       1    2610    4436    4432    4435
CTETRA     13646       1    1259    2250    2247    2245
CTETRA     13647       1    1673    1523    1674    5247
CTETRA     13648       1     637    1826    1824     639
CTETRA     13649       1    1673    5244    5246    5247
CTETRA     13650       1    1859    1860     507     630
CTETRA     13651       1    1711     134    2054     988
CTETRA     13652       1    1670    2249    2248    2863
CTETRA     13653       1    2250    1863    2843    2807
CTETRA     13654       1    1328     509    1725    2803
CTETRA     13655       1    2168    4902    4901    4979
CTETRA     13656       1    2694    2982    3481    3519
CTETRA     13657       1     693     694     631     864
CTETRA     13658       1    2218    4649    4630    4648
CTETRA     13659       1       9     295     657     870
CTETRA     13660       1    5275    1412    5216    5279
CTETRA     13661       1    1087    5547    5548    5524
CTETRA     13662       1    2505    4680    4681    4472
CTETRA     13663       1    1818    2542     645    1484
CTETRA     13664       1    1393    3658    3641    3354
CTETRA     13665       1    5545    5544    5521     311
CTETRA     13666       1    5093    5094    5091     741
CTETRA     13667       1    1749    2331    2921    1094
CTETRA     13668       1    1786    1920    5583    5560
CTETRA     13669       1    5562    1786    1781    1926
CTETRA     13670       1    1290    3909    3908    3970
CTETRA     13671       1    2698    3862    3817    3861
CTETRA     13672       1    2830    5118    2831    2832
CTETRA     13673       1    1786    5585    1926    5562
CTETRA     13674       1    1786    5585    1356    1926
CTETRA     13675       1    1781    1926    1784    2135
CTETRA     13676       1    2228    4774    4769    4772
CTETRA     13677       1    1863    1862    2250    2843
CTETRA     13678       1    1925    2141    1786    1784
CTETRA     13679       1    1925    1356    1931    1926
CTETRA     13680       1     322     320     323    2440
CTETRA     13681       1    1058    2441    2131    5216
CTETRA     13682       1    3061    1446    2410    3582
CTETRA     13683       1     864     863    4777    1257
CTETRA     13684       1    2298    3586    3587    3576
CTETRA     13685       1     921    1485    1486    1492
CTETRA     13686       1     525     101    1809    1805
CTETRA     13687       1    1805     925    1385    1783
CTETRA     13688       1    1808    2944    2544    1814
CTETRA     13689       1    2816    5211    5210    5317
CTETRA     13690       1    3498    2946    3508    3489
CTETRA     13691       1    3010    4699    4668    4667
CTETRA     13692       1     101    2544    2373    2626
CTETRA     13693       1    2476    1882    5273    2362
CTETRA     13694       1    2118    4648    4647    4667
CTETRA     13695       1      99     109     102    1808
CTETRA     13696       1    1390    3575    3583    3582
CTETRA     13697       1    1444    5346    5209    5208
CTETRA     13698       1    3621    5859    5858    5276
CTETRA     13699       1     651    5283    5220    5219
CTETRA     13700       1    2123     978    2694    3080
CTETRA     13701       1     996     976    2957    1230
CTETRA     13702       1    2349    5459    5458    5482
CTETRA     13703       1    1934    5284    5277    5283
CTETRA     13704       1    2804    5000    1260    5001
CTETRA     13705       1    2710    4138    4125    4126
CTETRA     13706       1     762    2911    4452     764
CTETRA     13707       1     913    4170    5790    4075
CTETRA     13708       1    2870    3919    1452    3892
CTETRA     13709       1     914    4170    4074    4169
CTETRA     13710       1    2777    2409    2607    2778
CTETRA     13711       1     916    2658    2941    2401
CTETRA     13712       1    2783    4179    5805    4272
CTETRA     13713       1    2941     879    2186     744
CTETRA     13714       1    2563    2564    2380    4632
CTETRA     13715       1    1062    5807    4673    4274
CTETRA     13716       1    2408    4653    4634    4652
CTETRA     13717       1    2186    4217     754     755
CTETRA     13718       1    1609     918    1983     877
CTETRA     13719       1     878     916    2941    2909
CTETRA     13720       1    2188    4621    4639    4640
CTETRA     13721       1    1040    3200    3190    3199
CTETRA     13722       1    1039    3999    4004    4010
CTETRA     13723       1    2755    5127    5125    5123
CTETRA     13724       1    3998    2214    1036    3997
CTETRA     13725       1    2200    1099     881    2878
CTETRA     13726       1     548    2079     881    2878
CTETRA     13727       1    1746    3995    3994    4000
CTETRA     13728       1    2476    5273    4720    5889
CTETRA     13729       1    1625    1191    1624    1337
CTETRA     13730       1    1970    2443    1969    2656
CTETRA     13731       1      35    1532    2548    1529
CTETRA     13732       1    2236     255    2423    1843
CTETRA     13733       1      33      36    2080      71
CTETRA     13734       1     323    4127    4176    4175
CTETRA     13735       1     675    2721    1030    4022
CTETRA     13736       1    1582    1456    2854    4044
CTETRA     13737       1     127     540     530     528
CTETRA     13738       1    2437    3830    3874    3875
CTETRA     13739       1    2935    3152    3157    3158
CTETRA     13740       1    3989    1516    1514    3988
CTETRA     13741       1     888     541    2309    1458
CTETRA     13742       1    2683    2359    3987    2083
CTETRA     13743       1    1277    2712    2554    5179
CTETRA     13744       1    2083    3921    3920    3986
CTETRA     13745       1    2889    4175    4176    4174
CTETRA     13746       1    2911    4451    4452    4523
CTETRA     13747       1    1402    1588    2279    1403
CTETRA     13748       1    1453    1456    4042    4043
CTETRA     13749       1     293     539     288     292
CTETRA     13750       1    2948    1453    4053    2853
CTETRA     13751       1    1453    4043    4042    4053
CTETRA     13752       1    1975    4822    4818    4800
CTETRA     13753       1    2771    5315    5325    5321
CTETRA     13754       1    1795    1799     288    1793
CTETRA     13755       1    2040    2883    3278    3273
CTETRA     13756       1     530     284     531    2030
CTETRA     13757       1       8     279    1773     280
CTETRA     13758       1    2018    1320    1799    1795
CTETRA     13759       1    2771    5321    2417    5315
CTETRA     13760       1    2770    5314    5405    5315
CTETRA     13761       1     539    1797    1793    1799
CTETRA     13762       1    2476    5263    2116    2362
CTETRA     13763       1    2665    3917    3916    3982
CTETRA     13764       1    3919    1451    2129    1452
CTETRA     13765       1     428    1026    2416    1209
CTETRA     13766       1    2922    4721    4722    2476
CTETRA     13767       1      26    2593      18    1473
CTETRA     13768       1    2147    3186    3183    3182
CTETRA     13769       1    4723    2922    4721    4722
CTETRA     13770       1    1594    1546    1545    1499
CTETRA     13771       1    3044    1899     254    2215
CTETRA     13772       1    2259     867    3081     131
CTETRA     13773       1     289     285     296     295
CTETRA     13774       1    1998    2952    2305    1949
CTETRA     13775       1    1594    4253    4250    4249
CTETRA     13776       1    4301    1682    1668    4345
CTETRA     13777       1     982    3461    3459    3460
CTETRA     13778       1    2072    4301    4302    4315
CTETRA     13779       1    2858    4903    4902    4977
CTETRA     13780       1    2858    4999    4904    4903
CTETRA     13781       1     184     565    2952    1279
CTETRA     13782       1    1445    2922    2476    1406
CTETRA     13783       1    2858    4977    4999    4903
CTETRA     13784       1    2024    1359     295     866
CTETRA     13785       1    2211    1268    2782    2858
CTETRA     13786       1    1268    4976    4977    4979
CTETRA     13787       1    2168    4977    4902    4979
CTETRA     13788       1    2612    1266    4936    4935
CTETRA     13789       1       2       6     134     133
CTETRA     13790       1    2975    2995    3109    3116
CTETRA     13791       1    2266    5206    5207    5234
CTETRA     13792       1    3116    2975    1391    3110
CTETRA     13793       1    2975    1810    3159    3153
CTETRA     13794       1    2076    2077    5252    2246
CTETRA     13795       1     107     930     876     889
CTETRA     13796       1      95     320     718     321
CTETRA     13797       1    1663    5136    5137    2830
CTETRA     13798       1    1391    3116    3119    2645
CTETRA     13799       1    2905    3438    3446    5684
CTETRA     13800       1    1206    2883    3273    3282
CTETRA     13801       1    2975    2995    3153    3109
CTETRA     13802       1    1854    4906    4913    4907
CTETRA     13803       1    2975    1810    1391    3159
CTETRA     13804       1    1408    4709    4712    4708
CTETRA     13805       1    1515    4050    1534    3990
CTETRA     13806       1    1534    1510    4133    4132
CTETRA     13807       1    2242    4737    4744    4738
CTETRA     13808       1     966    1193    1194     803
CTETRA     13809       1    2888    2325    3251    1586
CTETRA     13810       1    1845    2688    1209    2416
CTETRA     13811       1    3121    1510    4051    4132
CTETRA     13812       1    1510    4051    4132    1534
CTETRA     13813       1    1617     880    2733    2391
CTETRA     13814       1     917     382    1143     918
CTETRA     13815       1    1179    3541    3486    3485
CTETRA     13816       1    2514    3584    3542    3541
CTETRA     13817       1    3057    5849    3504    5344
CTETRA     13818       1    2133    5711    5710    3387
CTETRA     13819       1    2027    2029    3301    2028
CTETRA     13820       1     402    2213    1775    2191
CTETRA     13821       1     475     908     535     152
CTETRA     13822       1    1001    1850    1003    1059
CTETRA     13823       1     326    4896    2209    4841
CTETRA     13824       1     956     893    1775    2034
CTETRA     13825       1    2041    4387    4377    4376
CTETRA     13826       1    1710    4365    4381    4378
CTETRA     13827       1    1000    1775    2213     957
CTETRA     13828       1     287    1811    5715    5714
CTETRA     13829       1     326    4896    4841    4840
CTETRA     13830       1    1413    4851    4840    4858
CTETRA     13831       1     484     485    3926    3898
CTETRA     13832       1     155    1578    1509    1508
CTETRA     13833       1     891     152     535     537
CTETRA     13834       1    2052     534    3009    1522
CTETRA     13835       1    1275    1278     335    1340
CTETRA     13836       1     155     171    1509     658
CTETRA     13837       1     623    5289    5288    5304
CTETRA     13838       1    2945     365    3095     366
CTETRA     13839       1     202    1713    1857    1716
CTETRA     13840       1    1445     624    2116    1715
CTETRA     13841       1    2065    3828    3837    3836
CTETRA     13842       1    1534    1514    4051    4050
CTETRA     13843       1    3065    5007    5028    5008
CTETRA     13844       1    1597    5008    5009    4876
CTETRA     13845       1    1342    1343    1579    1341
CTETRA     13846       1    1275    1340     335    1341
CTETRA     13847       1    2696    3880    3861    3860
CTETRA     13848       1    2486    3665    3854    3852
CTETRA     13849       1    2971    5051    4904    4999
CTETRA     13850       1    2782    4999    4998    5050
CTETRA     13851       1      16      19    1717    1845
CTETRA     13852       1    2688    1845    1469    1592
CTETRA     13853       1    1716    1973    2922    2112
CTETRA     13854       1     421     265     263     250
CTETRA     13855       1    1770    1485    4136     926
CTETRA     13856       1     930    2542     645    1385
CTETRA     13857       1    1486    4134    4135    4129
CTETRA     13858       1    1818    1492    1510    4153
CTETRA     13859       1    2534    5384    5379    5376
CTETRA     13860       1     210    5306    1715    1857
CTETRA     13861       1     210     623    1715    5304
CTETRA     13862       1     199    1001    1000     901
CTETRA     13863       1    1062    4269    2408    4653
CTETRA     13864       1    1618    4240    4245    4246
CTETRA     13865       1    1003    1059    1850    2923
CTETRA     13866       1    2212    3043    1769    4140
CTETRA     13867       1      27      39      32    1394
CTETRA     13868       1    1492    1485    1486    1484
CTETRA     13869       1     645    1391    1385    3111
CTETRA     13870       1    1207      37    1025    1221
CTETRA     13871       1     125     735     113     444
CTETRA     13872       1    2007     592    2006    4890
CTETRA     13873       1     361     494    3803    3903
CTETRA     13874       1     591     589     590    3470
CTETRA     13875       1     429    1640    1936    1207
CTETRA     13876       1    2052    2456     534    2465
CTETRA     13877       1    4739    2792    4740     619
CTETRA     13878       1    3810    2330    3809    3466
CTETRA     13879       1      27      30      40      28
CTETRA     13880       1    2827    4967    4988    4989
CTETRA     13881       1    3017    4887    5019    4988
CTETRA     13882       1    1722    1721     121    3088
CTETRA     13883       1    2629    3857    3856    3840
CTETRA     13884       1    2185    3938    3905    3931
CTETRA     13885       1     950    5368    1577    5362
CTETRA     13886       1    2719    2718    5110    2456
CTETRA     13887       1    1550    1610    4246    1612
CTETRA     13888       1     950    5367    5362    5363
CTETRA     13889       1     948     950     949    1549
CTETRA     13890       1    5583    1356    5607    1357
CTETRA     13891       1     292    1940    2018     290
CTETRA     13892       1    5720    1359    5719    1357
CTETRA     13893       1    1360    5326    1641    1361
CTETRA     13894       1    1361    5326    5323    5319
CTETRA     13895       1    1641    5327    5323    5326
CTETRA     13896       1     351    5319    5323    5318
CTETRA     13897       1    1357    1358    5720    1359
CTETRA     13898       1    2591    2457    2214    1034
CTETRA     13899       1    2457    3994    3993    3999
CTETRA     13900       1    2325    3251    3238    3257
CTETRA     13901       1     499    2197    2232    1922
CTETRA     13902       1    1872    1662    1665    1873
CTETRA     13903       1    1362    1920    5582    5583
CTETRA     13904       1    2525    2540    2524    2430
CTETRA     13905       1     259     598    1848    5549
CTETRA     13906       1    5906    2140     500    5573
CTETRA     13907       1    1847    5906    1848    5595
CTETRA     13908       1    2177    4901    4921    4916
CTETRA     13909       1     650    5276    5221    5220
CTETRA     13910       1     666    5221    3618    5857
CTETRA     13911       1     165    1888     173     164
CTETRA     13912       1    5572    5595     597    1848
CTETRA     13913       1    2282    5220    5230    5226
CTETRA     13914       1    2608    4197    5804    4179
CTETRA     13915       1    1427    1804    1800    1803
CTETRA     13916       1    1088     312    2042    1090
CTETRA     13917       1    2608    4179    4180    4197
CTETRA     13918       1    2773    4180    4187    4197
CTETRA     13919       1     500    2100    1848    2139
CTETRA     13920       1    2773    4180    4181    4187
CTETRA     13921       1     864    4770    4772    4769
CTETRA     13922       1     768    3604    3613    3615
CTETRA     13923       1    2970    3264     158    2035
CTETRA     13924       1    2035    3279    3263    3264
CTETRA     13925       1    2314    3790    2333    3780
CTETRA     13926       1    1204     162    2719    3066
CTETRA     13927       1    2466     898    2035    2781
CTETRA     13928       1    2466    3287    2037    3286
CTETRA     13929       1     554     555    2343      47
CTETRA     13930       1    3474    2339    2931     852
CTETRA     13931       1    1696    2372    2650    1074
CTETRA     13932       1    2700    3860    3816    3815
CTETRA     13933       1    2466    2035    3287    2781
CTETRA     13934       1     723    3862    3882    3863
CTETRA     13935       1    3908    1290    2697    3882
CTETRA     13936       1     158     151    2970    2035
CTETRA     13937       1    2035    3262    2036    2037
CTETRA     13938       1     526    5020    5196    5021
CTETRA     13939       1    2035    3287    2781    3288
CTETRA     13940       1    2035    3263    2036    3262
CTETRA     13941       1    2841    2147    2145    1589
CTETRA     13942       1    5195    4142    5784    5785
CTETRA     13943       1    3091    3485    5342    5850
CTETRA     13944       1    3091    2514    3541    3589
CTETRA     13945       1    4121    4110    2909    1812
CTETRA     13946       1    2514    3591    3584    3589
CTETRA     13947       1    3057    3091    1179    3485
CTETRA     13948       1    2238    5721    2237    5722
CTETRA     13949       1    2058    4898    4941    4899
CTETRA     13950       1    1908    4908    4897    4898
CTETRA     13951       1    2209    4896    4897    4910
CTETRA     13952       1    2860    4910    4908    4909
CTETRA     13953       1    2536     109    2307    2313
CTETRA     13954       1    1727    3605    3615    3617
CTETRA     13955       1     409    2536     411     410
CTETRA     13956       1     568     569     580     567
CTETRA     13957       1    1416    1186    1187    2163
CTETRA     13958       1     792    3935    3928    3927
CTETRA     13959       1      53    2189     556     554
CTETRA     13960       1    1328    3617    3571    3570
CTETRA     13961       1    4514    4075    5790    5791
CTETRA     13962       1    4520    4510    1895    4509
CTETRA     13963       1     227    2646    1659     672
CTETRA     13964       1    1186     571     579    1184
CTETRA     13965       1    1031     572    1030    1045
CTETRA     13966       1    1019     571     574    1018
CTETRA     13967       1    4005    3219    5637    3225
CTETRA     13968       1    1041    4005    4007    3225
CTETRA     13969       1    1812    4064    4109    4063
CTETRA     13970       1    1023     541    1581    1823
CTETRA     13971       1    2955    5511    5488    5487
CTETRA     13972       1     597    2100    1089    1848
CTETRA     13973       1     234    1402     247    1225
CTETRA     13974       1    1561    1563    1557    2070
CTETRA     13975       1    2115    4380    4374    4379
CTETRA     13976       1    1343     482    1169    1341
CTETRA     13977       1    1908    4905    4906    4908
CTETRA     13978       1    2457    2591    1746    1015
CTETRA     13979       1    1343     480     482    1341
CTETRA     13980       1     488    1568    1591    1694
CTETRA     13981       1    2468    5030    5158    5134
CTETRA     13982       1    2261    3197    3206    3229
CTETRA     13983       1    2539    3205    3233    3206
CTETRA     13984       1    2723    3892    3893    3873
CTETRA     13985       1    1515    1514    1534    4050
CTETRA     13986       1     719    4178    4072    4071
CTETRA     13987       1     891     151     894     898
CTETRA     13988       1    1812    4063    2909    2547
CTETRA     13989       1    2382    3492    3519    3518
CTETRA     13990       1    1534    4131    5732    4132
CTETRA     13991       1    2383    3492    3493    3508
CTETRA     13992       1     388    3098    1765     436
CTETRA     13993       1    2221    4629    4647    4648
CTETRA     13994       1    1626    1061    2159     909
CTETRA     13995       1    2647    4686    4654    4685
CTETRA     13996       1     442    3629    3653    3466
CTETRA     13997       1    2796    4734    4733    4684
CTETRA     13998       1    2792    4734    4735    4730
CTETRA     13999       1     315    5568    5591    5592
CTETRA     14000       1    1626     388    1765     396
CTETRA     14001       1    2271    3654    3644    3643
CTETRA     14002       1    1420    2014    2674    2405
CTETRA     14003       1    1534    4131    3990    5732
CTETRA     14004       1    2946    3490    3489    3551
CTETRA     14005       1    3053    3490    3492    3508
CTETRA     14006       1     166    2191    1567     397
CTETRA     14007       1    1537     772    1817    3058
CTETRA     14008       1     165    1567     166     902
CTETRA     14009       1     161     931    1706    2447
CTETRA     14010       1    1279    3658    5726    1280
CTETRA     14011       1    2024     942     941    2025
CTETRA     14012       1     621    1027    3650    3651
CTETRA     14013       1     759    4987    4889    4967
CTETRA     14014       1    1095     495    3903    3930
CTETRA     14015       1     900    1850    2471    2094
CTETRA     14016       1    1601    5030    5031    5010
CTETRA     14017       1     475     909     535     908
CTETRA     14018       1     434     984     435     437
CTETRA     14019       1     739     746     745     738
CTETRA     14020       1    2691    3820    3821    3849
CTETRA     14021       1    2690    3821    3847    3849
CTETRA     14022       1     383    4537    4538    4529
CTETRA     14023       1    2882    3853    3819    3851
CTETRA     14024       1    3094    3851    3820    3849
CTETRA     14025       1    2801    2603    4426    4425
CTETRA     14026       1     745    1917     778     588
CTETRA     14027       1    3052    4195    5800    4193
CTETRA     14028       1    3052    4190    4195    4193
CTETRA     14029       1    2223    4650    4649    2219
CTETRA     14030       1     214    1378    4611     471
CTETRA     14031       1     455     737    1918     736
CTETRA     14032       1    2877    4215    4216    4190
CTETRA     14033       1    1298    4200    1300    4185
CTETRA     14034       1     996     977     973    2957
CTETRA     14035       1    2408    2409    2783    4272
CTETRA     14036       1    2608    2412    2788    4599
CTETRA     14037       1     114    1270    1160     112
CTETRA     14038       1     400    2213    2932     957
CTETRA     14039       1    1287    3946    3969    3907
CTETRA     14040       1    2801    2603    2479    2109
CTETRA     14041       1    1168    5122    5102    5121
CTETRA     14042       1    2927    3994    1745    3966
CTETRA     14043       1    2801    3364    2109    3365
CTETRA     14044       1    1211     745     122     771
CTETRA     14045       1    1944    1968     590    2627
CTETRA     14046       1    2201    4471    4682    4470
CTETRA     14047       1     587    4683    4470    4682
CTETRA     14048       1    3967    1745    2887    3995
CTETRA     14049       1     122     114     745    1211
CTETRA     14050       1    2887    3970    3968    3909
CTETRA     14051       1    2301    2302    1637    1636
CTETRA     14052       1    2941    2547    2909    4063
CTETRA     14053       1    2801    4418    3388    5761
CTETRA     14054       1    4425    2479    3425    2801
CTETRA     14055       1    2232    5601    5577    5600
CTETRA     14056       1     463    1968    2627    2484
CTETRA     14057       1     703     708     709     706
CTETRA     14058       1    3011    5121    5123    5124
CTETRA     14059       1     804     802     448    2356
CTETRA     14060       1    1287    3946    3907    3906
CTETRA     14061       1    3587    3586     491    3594
CTETRA     14062       1     712    1646    1650    2492
CTETRA     14063       1    2415    5346    5345    2919
CTETRA     14064       1    1447    2918    2991    2919
CTETRA     14065       1    5233    2415    5208    5207
CTETRA     14066       1     802    1251     801    1245
CTETRA     14067       1    1865    5871    5357    4830
CTETRA     14068       1    1245     805     450    1247
CTETRA     14069       1    2356    1596    3092    2716
CTETRA     14070       1    2799    4825    5399    4826
CTETRA     14071       1    1866    4825    4826    4827
CTETRA     14072       1    1518    2318    2231    2577
CTETRA     14073       1    1984    2979    2356    3093
CTETRA     14074       1    2834     716    2791     715
CTETRA     14075       1    2741    4899    4943    4900
CTETRA     14076       1    1603    4359    4365    4378
CTETRA     14077       1     616    5474    1465    5475
CTETRA     14078       1     312    5521     904    5544
CTETRA     14079       1    1090     904     312    2043
CTETRA     14080       1    2318    2655    3352    3351
CTETRA     14081       1    1851    1854    2860    1852
CTETRA     14082       1    1526    5611    1527    2238
CTETRA     14083       1    2091    2092    1466     312
CTETRA     14084       1    1648    2276     702    1233
CTETRA     14085       1    2801    4418    5761    4425
CTETRA     14086       1    5012    1985    3093    5013
CTETRA     14087       1     789    1175    2060    3049
CTETRA     14088       1     705     707    1166    1247
CTETRA     14089       1    2486    3854    3853    3852
CTETRA     14090       1     702    1233     238    1139
CTETRA     14091       1    2685    4687    4742    4688
CTETRA     14092       1    2803    3572    3615    3613
CTETRA     14093       1    3617    1727    1328    3615
CTETRA     14094       1     704    2704    2899    1137
CTETRA     14095       1    1227    1789    2064    1645
CTETRA     14096       1     702     241    3027     242
CTETRA     14097       1    2622    3335    2367    2508
CTETRA     14098       1    2779    4752    4746    4745
CTETRA     14099       1    1151    5018    5017    5038
CTETRA     14100       1     445     702    1140     241
CTETRA     14101       1    5475    1365    1482    1465
CTETRA     14102       1    1291    3972    3970    3969
CTETRA     14103       1    1648     702    1137    1139
CTETRA     14104       1    1069    1125    1619    1123
CTETRA     14105       1    1872    2290    5129    1665
CTETRA     14106       1    2697    3881    3907    3908
CTETRA     14107       1    1176    1172    2897    3083
CTETRA     14108       1    2330    3806    3467    3810
CTETRA     14109       1    1185    1431    1556    2925
CTETRA     14110       1    1989    1601     446    2468
CTETRA     14111       1    2163    1556    2636    2468
CTETRA     14112       1    1556    1431    1416    1418
CTETRA     14113       1     246     233     234     238
CTETRA     14114       1     268     954     961     962
CTETRA     14115       1    2408    4653    4269    5806
CTETRA     14116       1    2783    2608    2563    4616
CTETRA     14117       1    2682    2695    3520    2424
CTETRA     14118       1    1335    3765    3754    2124
CTETRA     14119       1    2380    2223    4650    4632
CTETRA     14120       1    2551    2557    4100    4099
CTETRA     14121       1    3526    4235    4250    5755
CTETRA     14122       1     961     960    2474     954
CTETRA     14123       1    1545    3527    3524    3528
CTETRA     14124       1    1712     131    2611     318
CTETRA     14125       1     283    3081     867     131
CTETRA     14126       1     955    2915     991    1881
CTETRA     14127       1    1364    5474    5451    5450
CTETRA     14128       1    2143    3880    3879    3906
CTETRA     14129       1    1151    5037    5038    5017
CTETRA     14130       1    1262     656     133    1479
CTETRA     14131       1    1374    5437    5436    5460
CTETRA     14132       1     490    2275    3596    3595
CTETRA     14133       1       8     129     268       3
CTETRA     14134       1     524    5196     526    5020
CTETRA     14135       1    5020    2212    5195    4142
CTETRA     14136       1     646    2811    2341    2801
CTETRA     14137       1    2433    2551    4090    4089
CTETRA     14138       1     930    1492    1391     645
CTETRA     14139       1    3066    3275    3276    3249
CTETRA     14140       1    2896    3276    3250    3249
CTETRA     14141       1     815     816     680     821
CTETRA     14142       1    5112    3276    5658    5659
CTETRA     14143       1    5112    3276    5659    3250
CTETRA     14144       1     510     588     770     767
CTETRA     14145       1    1957     729    3031     726
CTETRA     14146       1     386    2964     147     387
CTETRA     14147       1     803     149     386    1194
CTETRA     14148       1    1952     142    3060    1977
CTETRA     14149       1    2089    2085    2394    2662
CTETRA     14150       1    1943     811    3002    1161
CTETRA     14151       1    1944    1952     142    3060
CTETRA     14152       1    1265    4975    4997    4976
CTETRA     14153       1     148     145    1539    1200
CTETRA     14154       1     137     146     148     144
CTETRA     14155       1    1268    4980    4976    4979
CTETRA     14156       1    2687     272    1289     730
CTETRA     14157       1    1243    3483    3484    3513
CTETRA     14158       1    1611    2236    2423    1131
CTETRA     14159       1     732    1331    1956    3032
CTETRA     14160       1    2772    1768    1694     269
CTETRA     14161       1    1381    2774    3062    1988
CTETRA     14162       1    2434    4670    4651    4650
CTETRA     14163       1    2380    4651    4633    4632
CTETRA     14164       1    1768    1988    1381    1379
CTETRA     14165       1    1331    1956    3032    3063
CTETRA     14166       1    1988    2774    3062    3063
CTETRA     14167       1    3396    4404    5764    3392
CTETRA     14168       1     447    1989    1332     448
CTETRA     14169       1     456    2180    1325     736
CTETRA     14170       1     392    1135     803     387
CTETRA     14171       1    1118    2440    2710    4125
CTETRA     14172       1    2804    5001    4868    5000
CTETRA     14173       1    2804    4167    4124    5787
CTETRA     14174       1    1140    2908    1956    3063
CTETRA     14175       1    1256    4448    4868    4869
CTETRA     14176       1    1114    1256    1115    4448
CTETRA     14177       1    1885    1081    1080    1763
CTETRA     14178       1    2804    1118     843    1260
CTETRA     14179       1    1270     819    3068    2885
CTETRA     14180       1    1765     436    3098     439
CTETRA     14181       1    2103    3295    3294    3297
CTETRA     14182       1    1096     172     661     985
CTETRA     14183       1     985    2642     173     661
CTETRA     14184       1    2969    5654    3293    3292
CTETRA     14185       1    2035    3288    3263    3287
CTETRA     14186       1     388     436     389    3098
CTETRA     14187       1    2027    2104    2028    3301
CTETRA     14188       1    5067    2491     582    5049
CTETRA     14189       1     150     896     891     151
CTETRA     14190       1     792     929    3935    3927
CTETRA     14191       1    1991    3260    3261    3267
CTETRA     14192       1    2932     941    5720    5721
CTETRA     14193       1    1849     193    1437    1436
CTETRA     14194       1    3001    3854    3664    3858
CTETRA     14195       1    2487    3854    3855    3853
CTETRA     14196       1     600    2741     610    2031
CTETRA     14197       1      11      15      12     212
CTETRA     14198       1    1151    5017    5018    4885
CTETRA     14199       1     197    1296     198     942
CTETRA     14200       1     607     610     612    2031
CTETRA     14201       1    1395      37    1394    1006
CTETRA     14202       1     798    4713    4712    4709
CTETRA     14203       1    4969    2516     760    4986
CTETRA     14204       1    2505    4472    4681    4471
CTETRA     14205       1    2001    2915    1996    2814
CTETRA     14206       1    1092    1272    1097    1749
CTETRA     14207       1    2361    1116    4172    2360
CTETRA     14208       1    1965    3608    3607    3611
CTETRA     14209       1    2414    3471    3472    3603
CTETRA     14210       1     116    1974    1696     733
CTETRA     14211       1     564      30    2331    1313
CTETRA     14212       1     913    1162    4075    4514
CTETRA     14213       1    2752    4971    4972    4983
CTETRA     14214       1    2161    4978    4973    4974
CTETRA     14215       1     111     120     121    1696
CTETRA     14216       1    1224    1030    1223    4014
CTETRA     14217       1     483    3436    3437    3460
CTETRA     14218       1    2275     490    5227    3595
CTETRA     14219       1     483    3898    3437    3436
CTETRA     14220       1     389    4992    5043    5044
CTETRA     14221       1    2954    1066    1044    1067
CTETRA     14222       1    1272    1753     680    1097
CTETRA     14223       1    1696    2993     733    2647
CTETRA     14224       1    1790    3238    3190    3189
CTETRA     14225       1    3011    5124    1169    5121
CTETRA     14226       1    1272    1274    1753    1750
CTETRA     14227       1     816    1272    1092    1271
CTETRA     14228       1    1272    1754    1097    1751
CTETRA     14229       1    2214    3993    3992    3998
CTETRA     14230       1    2214    3993    3998    3999
CTETRA     14231       1    2540    2459    3193    2430
CTETRA     14232       1     248     579     569     580
CTETRA     14233       1    1066    4018    4019    4021
CTETRA     14234       1    2138     759     561    2007
CTETRA     14235       1    2159    1626     909     536
CTETRA     14236       1     814    1790    3189    3238
CTETRA     14237       1    1567    1507    1901     927
CTETRA     14238       1    2749    5164    5154    5163
CTETRA     14239       1     244    3868    3867    3887
CTETRA     14240       1    2292    5128    5129    5116
CTETRA     14241       1    3083    3913    3887    3886
CTETRA     14242       1    1067    3217     226    3218
CTETRA     14243       1    4694    4662    2403    2420
CTETRA     14244       1     397     166     396     164
CTETRA     14245       1    1765     439    2160    2752
CTETRA     14246       1    2348    5901    5900    5457
CTETRA     14247       1    2887     272    2687     271
CTETRA     14248       1    5854    5235    2270     490
CTETRA     14249       1     441    1093    2462    2463
CTETRA     14250       1     439     436    3098    2515
CTETRA     14251       1    1901    1888    2641     929
CTETRA     14252       1    3098     439    2160    1765
CTETRA     14253       1    1382    1379    1555    1590
CTETRA     14254       1    1063    1039    4003    4013
CTETRA     14255       1    3277    3066    5057    2040
CTETRA     14256       1     398     164    2461    2760
CTETRA     14257       1    1760    1949     184    1942
CTETRA     14258       1     195    2635    2162    2562
CTETRA     14259       1    2782    4997    4998    4976
CTETRA     14260       1     164     397    2760     398
CTETRA     14261       1    2460    2008     408    2113
CTETRA     14262       1    1003    2161    1261     406
CTETRA     14263       1    2719    5108    5110    5109
CTETRA     14264       1     480    1042     497    1569
CTETRA     14265       1    1262     657     405     133
CTETRA     14266       1    1204    2896    2719    2718
CTETRA     14267       1    2456    5113    5107    5103
CTETRA     14268       1     441    1093    2463     790
CTETRA     14269       1     868     992    1479     135
CTETRA     14270       1    2783    4179    4616    5805
CTETRA     14271       1      22    1699    3004      20
CTETRA     14272       1    2216     448    1596    2356
CTETRA     14273       1    2563    2788    2564    4615
CTETRA     14274       1    1330    2291    1329    2985
CTETRA     14275       1    2783    4272    2409    4271
CTETRA     14276       1    1944     142     463    3060
CTETRA     14277       1     453    3090    1971    2473
CTETRA     14278       1    1260    5000    5021    5001
CTETRA     14279       1    2870    3919    3918    3984
CTETRA     14280       1    1451    3920    3919    3985
CTETRA     14281       1    2552    5025    5024    5183
CTETRA     14282       1    2870    3892    3918    3919
CTETRA     14283       1    5583    1622    1356    1357
CTETRA     14284       1    2612    4941    4942    4943
CTETRA     14285       1    3089    1155    1154    1972
CTETRA     14286       1    1108    2419      51     175
CTETRA     14287       1    1541    2726     139    3019
CTETRA     14288       1    1972    1155    1971    3089
CTETRA     14289       1     145    2726    1541    3069
CTETRA     14290       1     490    5854    5227    3595
CTETRA     14291       1    2311    2312    2303    4290
CTETRA     14292       1     139     136     453     138
CTETRA     14293       1    1066    1030    4019    4018
CTETRA     14294       1    1541    1197    2894    3019
CTETRA     14295       1    2982    3519    3480    3481
CTETRA     14296       1    2693    3482    3522    3517
CTETRA     14297       1     386    1122    1128     462
CTETRA     14298       1    4182     974    1830    4285
CTETRA     14299       1    2342    2509    5454    5431
CTETRA     14300       1    1364    1483     163    5451
CTETRA     14301       1     430    1497    3533    3531
CTETRA     14302       1     727    1199    1200    1955
CTETRA     14303       1    2946    3490    3508    3489
CTETRA     14304       1    4559    5801    4193    5800
CTETRA     14305       1    2565    4198    4561    4493
CTETRA     14306       1    1972    3090     453    2724
CTETRA     14307       1    2509    2508    3342    3310
CTETRA     14308       1    3014    4228    4213    4212
CTETRA     14309       1    3052    4193    4189    4190
CTETRA     14310       1    2595    4597    4596    4613
CTETRA     14311       1    1972    1971    3090    3089
CTETRA     14312       1    2608    4180    2609    2773
CTETRA     14313       1    1865    5410    5358    5357
CTETRA     14314       1     602     606     610    2168
CTETRA     14315       1     612    1680    1398    2493
CTETRA     14316       1    1884    4213    4215    4214
CTETRA     14317       1     699     701     973     977
CTETRA     14318       1    1028    1224    1223    1039
CTETRA     14319       1    2208    2451    1852    4905
CTETRA     14320       1    2434    4671    4670    4702
CTETRA     14321       1    1462    4814    4702    4813
CTETRA     14322       1     878     879     916    1637
CTETRA     14323       1    2230    1521    2231     611
CTETRA     14324       1     900    2467    2471     478
CTETRA     14325       1    2208     609     600    2058
CTETRA     14326       1    2760    3437    3798    5721
CTETRA     14327       1     606    1679    1400    1401
CTETRA     14328       1    1956     804     392    1135
CTETRA     14329       1    2342    2509    3317    2622
CTETRA     14330       1    1398    2493    1680    1401
CTETRA     14331       1     800     391    1984     804
CTETRA     14332       1    2095    4997    5048    5049
CTETRA     14333       1    1267    4935    4981    4980
CTETRA     14334       1    2094     899    1436    2105
CTETRA     14335       1    2699    3861    3817    3816
CTETRA     14336       1    4886    4885    2478    5018
CTETRA     14337       1    3064    2895    1954    1984
CTETRA     14338       1     137     142     461     463
CTETRA     14339       1    1767     706     710     709
CTETRA     14340       1     704     708     804     709
CTETRA     14341       1    2697    3881    3861    3880
CTETRA     14342       1     724     731     850     727
CTETRA     14343       1    4493    4198    5802    4196
CTETRA     14344       1     391     729     728    1956
CTETRA     14345       1    2581    4188    4198    4196
CTETRA     14346       1    2581    4187    4204    4188
CTETRA     14347       1    2412    4598    2788    4599
CTETRA     14348       1    2517    2778    2434    4652
CTETRA     14349       1    1612    4240    4246    4239
CTETRA     14350       1    1843    4703    4671    4702
CTETRA     14351       1     973    1802    1804    2974
CTETRA     14352       1     835    1170    1379    1590
CTETRA     14353       1    1979    3761    3760    3777
CTETRA     14354       1    1331    1956    3063    1988
CTETRA     14355       1     391     804     392    1956
CTETRA     14356       1    2483    3763    3761    3472
CTETRA     14357       1    2742    4622    4641    4623
CTETRA     14358       1    2855    4934    4978    4981
CTETRA     14359       1    2057    4944    4942    4946
CTETRA     14360       1    2033    1993    2838    1991
CTETRA     14361       1    1567     896     927    2000
CTETRA     14362       1     390     388     983     389
CTETRA     14363       1    2660    4060    4094    5797
CTETRA     14364       1    2466     898    2028    2037
CTETRA     14365       1    2703    5026    5025    5185
CTETRA     14366       1    1567    2641     397    2191
CTETRA     14367       1    1140     243    2899    2908
CTETRA     14368       1     931    1706    1792    2833
CTETRA     14369       1     155     154     665     658
CTETRA     14370       1    1567    2000    2641    2191
CTETRA     14371       1    2478    4886    5018    5019
CTETRA     14372       1     435     388     436     983
CTETRA     14373       1     595    3602    3609    3601
CTETRA     14374       1    3089    4585    4600    4601
CTETRA     14375       1    2657    2656    1970    2448
CTETRA     14376       1    1901    1567    2000    2641
CTETRA     14377       1    3078    4600    4463    4464
CTETRA     14378       1    4886    4465    2478    4885
CTETRA     14379       1     820    3860    3815    3859
CTETRA     14380       1     848    5019    5018    5039
CTETRA     14381       1    1887    1888    1901     929
CTETRA     14382       1    2065    1227     301     277
CTETRA     14383       1    1009     382     385    2357
CTETRA     14384       1    1405    1938    4838    4849
CTETRA     14385       1     642    4428    4427    4442
CTETRA     14386       1    3081    4965    4966    4938
CTETRA     14387       1     140    2316    1188    2317
CTETRA     14388       1    1938    4849    4837    4838
CTETRA     14389       1     954    4954    4964    4955
CTETRA     14390       1      61      65     382     910
CTETRA     14391       1    1165    1009    1167    1166
CTETRA     14392       1    2480    2363    4479    4433
CTETRA     14393       1    2426    4524    4527    4508
CTETRA     14394       1    1188    4861    4866    4865
CTETRA     14395       1     855    2315     852    3769
CTETRA     14396       1    3060    3664    3759    3762
CTETRA     14397       1    1174     234     235     233
CTETRA     14398       1    2635    4309    4308    4312
CTETRA     14399       1    2963    3446    4309    4313
CTETRA     14400       1    2963    3446    3452    4309
CTETRA     14401       1     799     392     800     804
CTETRA     14402       1     684    1151    1150    1149
CTETRA     14403       1    1775    2213     957     483
CTETRA     14404       1     190     604     189     191
CTETRA     14405       1    2564    4615    4614    4632
CTETRA     14406       1    1197    1538     392     144
CTETRA     14407       1    1940     316    5728    5616
CTETRA     14408       1    1940    1528     316    1527
CTETRA     14409       1    2608    2412    4599    4197
CTETRA     14410       1    2412    4197    2773    4187
CTETRA     14411       1    2783    2608    4616    4179
CTETRA     14412       1     910    2300     911    2302
CTETRA     14413       1    2353    4106    2263    4119
CTETRA     14414       1    2731    4096    4113    4097
CTETRA     14415       1     285    1622    1621    1923
CTETRA     14416       1    2628    4117    4101    4116
CTETRA     14417       1    2616    4102    4104    4103
CTETRA     14418       1    1941    2238    1527    1930
CTETRA     14419       1    2412    2846    2267    2788
CTETRA     14420       1    2608    4197    4599    5804
CTETRA     14421       1    2846    2594    4597    2595
CTETRA     14422       1     314    2044    5613    5590
CTETRA     14423       1     981    2982    2694    2382
CTETRA     14424       1    2109    3429    2973    2235
CTETRA     14425       1    1911    2427    2050    4414
CTETRA     14426       1    4418    3388    5762    4411
CTETRA     14427       1    1525    5612    1527    1526
CTETRA     14428       1    1929    1623    2141     294
CTETRA     14429       1    2141    1784    1927    1785
CTETRA     14430       1    2811    2603    4426    2801
CTETRA     14431       1    2605    2427      66    4406
CTETRA     14432       1     869    2008    2113     408
CTETRA     14433       1    2725    3069    4480    2724
CTETRA     14434       1     285     296    1359    1362
CTETRA     14435       1    2725    4480    4585    4586
CTETRA     14436       1    5602    1794    5601    2232
CTETRA     14437       1    2042    2100     597    1929
CTETRA     14438       1    1265    4975    4980    4981
CTETRA     14439       1    2849    2923    2161    4995
CTETRA     14440       1    2731    3005    4508    4507
CTETRA     14441       1    2042    1929    1927    2100
CTETRA     14442       1     582    5064    5065    5067
CTETRA     14443       1    2573    2103    3291    2781
CTETRA     14444       1     194    2156    2162    2157
CTETRA     14445       1    2509    3317    2622    3310
CTETRA     14446       1     344    1667    1351     342
CTETRA     14447       1    2156    3444    3451    3447
CTETRA     14448       1    1668    4321    4320    4345
CTETRA     14449       1    2165    2576    2168    4921
CTETRA     14450       1    1068    1076     766    1894
CTETRA     14451       1      93    1452    2438      98
CTETRA     14452       1    4326    4328    4904    5830
CTETRA     14453       1    1995    2025    2613    3461
CTETRA     14454       1     766     757    1167    2910
CTETRA     14455       1      97    1452    2723    2870
CTETRA     14456       1    1812    4110    2909    4063
CTETRA     14457       1     198    2025    2026    2613
CTETRA     14458       1    1668    4328    4321    4329
CTETRA     14459       1    1439    2108    2861    4311
CTETRA     14460       1     991    1881    2257     989
CTETRA     14461       1    1449    2422    2554    2555
CTETRA     14462       1    2330    3467    3466    3810
CTETRA     14463       1    2688    3358    2416     633
CTETRA     14464       1    2545    2361    1256    1115
CTETRA     14465       1    2648    4685    4733    4686
CTETRA     14466       1    2435    3602    3629    3467
CTETRA     14467       1     247    1402    2280    3065
CTETRA     14468       1     886    2084    1454     890
CTETRA     14469       1     591    3603    3612    3471
CTETRA     14470       1     959    4658    4690    4659
CTETRA     14471       1    1480    5478    5454    5477
CTETRA     14472       1    2545    1256     843    1115
CTETRA     14473       1     718     321     861     721
CTETRA     14474       1    2161    4973    4972    4994
CTETRA     14475       1    1528    1279    5726    1281
CTETRA     14476       1    1995    5720    3461    3460
CTETRA     14477       1     822     566    1953    2779
CTETRA     14478       1    2753    4932    4983    4982
CTETRA     14479       1     429    2442     105    2346
CTETRA     14480       1      80    2153     426    1345
CTETRA     14481       1     422    1052     423    1050
CTETRA     14482       1    2521    5084    5087    5083
CTETRA     14483       1     249     262     260     264
CTETRA     14484       1    2680    5349    1083    2395
CTETRA     14485       1     784     785     566    1540
CTETRA     14486       1    2161    4982    4972    4973
CTETRA     14487       1    2431    1795    5597    5709
CTETRA     14488       1     827    1447    2398    2397
CTETRA     14489       1     656    2852    1267    2056
CTETRA     14490       1    1446    2410     860    3061
CTETRA     14491       1    1265    4975    2923    4997
CTETRA     14492       1    2763    1183    1178    2959
CTETRA     14493       1    3586     493    2270    2266
CTETRA     14494       1    2887    3968    3970    3967
CTETRA     14495       1    1939    4838    4958    4839
CTETRA     14496       1     326    4959    4937    4896
CTETRA     14497       1     313    1713    2110     885
CTETRA     14498       1    4958     954    4964    4955
CTETRA     14499       1    1793    1794    5600    5601
CTETRA     14500       1    1483    2509    2508    3348
CTETRA     14501       1     826    1447     827    2397
CTETRA     14502       1    2509    2508    3348    3342
CTETRA     14503       1     326    4937    4897    4896
CTETRA     14504       1    3081    4964    4963    4966
CTETRA     14505       1    1077    1084    1083    2680
CTETRA     14506       1    1606    1690    1710    1603
CTETRA     14507       1    2819    2972    5338    2680
CTETRA     14508       1    2057    4945    4946    4941
CTETRA     14509       1    2398    2397    2514    1177
CTETRA     14510       1    2611    4938    4945    4937
CTETRA     14511       1    2818    3057    1182    3504
CTETRA     14512       1    1793    1798    5713    5712
CTETRA     14513       1    1288    3938    3906    3905
CTETRA     14514       1    2293    5117    1565    5126
CTETRA     14515       1    5092     741     743    5039
CTETRA     14516       1    1442    2266    2918    3085
CTETRA     14517       1    1446    1447    1442    1389
CTETRA     14518       1    2406     860    1446    2410
CTETRA     14519       1    3575    2266    3585    1389
CTETRA     14520       1     206    1787    5446    5423
CTETRA     14521       1    1788     206    1487     204
CTETRA     14522       1    5448     552    5447     206
CTETRA     14523       1    1084    2680    5350    1083
CTETRA     14524       1    1366    2255    2393    1752
CTETRA     14525       1    2862    1089     598    2093
CTETRA     14526       1    2099    2960    2392    2269
CTETRA     14527       1    2388    5372    1461    1476
CTETRA     14528       1    1843    4814    4703    4702
CTETRA     14529       1    1461    1462    4813    4831
CTETRA     14530       1    2991    3591    3589    5341
CTETRA     14531       1    3586    2266    3585    3575
CTETRA     14532       1    1692    1924    1693    1691
CTETRA     14533       1    2936    2076    2077    5210
CTETRA     14534       1    2618    2099    2960    2392
CTETRA     14535       1    2093    2269    1490    2097
CTETRA     14536       1     205    1490    1487    1489
CTETRA     14537       1    2879    3219    3226    3220
CTETRA     14538       1    1374    5438    1375    5437
CTETRA     14539       1    3219    4020    5638    3222
CTETRA     14540       1    2007    4469    4889    4890
CTETRA     14541       1    4685    2993    4468    2650
CTETRA     14542       1    2393    1375    5437    1374
CTETRA     14543       1    2478    4886    5019    4887
CTETRA     14544       1    2743    3657    2902    3656
CTETRA     14545       1    1292    4762    4758    4759
CTETRA     14546       1    2845    4888    4887    4988
CTETRA     14547       1     370    2686    2575    2997
CTETRA     14548       1    2972    5338    2680    5351
CTETRA     14549       1    2936    2543    5317    5347
CTETRA     14550       1    2936    5347     353    2543
CTETRA     14551       1    2936    1444    5347    5209
CTETRA     14552       1    2226    4307    4300    4314
CTETRA     14553       1    2936    1444    5209    2077
CTETRA     14554       1    2662    4297    3450    3449
CTETRA     14555       1    2256    4947    1881    4951
CTETRA     14556       1      29      28    1395    2902
CTETRA     14557       1    1892    5042    4991    4990
CTETRA     14558       1    2463    3814    3813    3801
CTETRA     14559       1    5704    2509    3317    5431
CTETRA     14560       1    2256    4929    2751    4930
CTETRA     14561       1    2921    2331    3464    1094
CTETRA     14562       1    2509    5431    5704    5703
CTETRA     14563       1     297     298      65    2556
CTETRA     14564       1    1253    3484    3526    3513
CTETRA     14565       1    2509    3348    5430    5703
CTETRA     14566       1    1878    2256    2815    2751
CTETRA     14567       1    1594    3524    1499    1545
CTETRA     14568       1    3702    5740    5739    4085
CTETRA     14569       1    2385    4087    4085    4078
CTETRA     14570       1    1011    2257    2256    2751
CTETRA     14571       1     446    2163    2468    1187
CTETRA     14572       1    1514    3988    4049    3989
CTETRA     14573       1    1516    3989    3924    3923
CTETRA     14574       1    1458    2948    2998    1806
CTETRA     14575       1    2384    4160    4161    4130
CTETRA     14576       1    3026    1515    1516    2384
CTETRA     14577       1     236     246     247     446
CTETRA     14578       1     799     805     801    1197
CTETRA     14579       1    2711    3026    2681     920
CTETRA     14580       1    3924    5734    5733    4161
CTETRA     14581       1    1513    1534    1515    1514
CTETRA     14582       1    2652    5092     743    5089
CTETRA     14583       1    1989     448     446    1601
CTETRA     14584       1    1635    3041    2169    2170
CTETRA     14585       1    3024     575    2988     965
CTETRA     14586       1    1132    2184    3945    3938
CTETRA     14587       1    1291    3908    3969    3970
CTETRA     14588       1     800    2356    2979    2716
CTETRA     14589       1    1746    2591    2457    2927
CTETRA     14590       1    2828    3702    5739    4085
CTETRA     14591       1    2867    4157    4069    4159
CTETRA     14592       1    2369     933    2359    1514
CTETRA     14593       1    1453    1454    1455    4053
CTETRA     14594       1     861    4174    4177    4157
CTETRA     14595       1    2306    3157    3147    3163
CTETRA     14596       1    2683    3895    3921    3922
CTETRA     14597       1     874     528    1811    1518
CTETRA     14598       1    1140    3063    1956    1988
CTETRA     14599       1    2660    2659    4501    3079
CTETRA     14600       1    1596     450     448     451
CTETRA     14601       1    2083    3921    3986    3987
CTETRA     14602       1    1376    1493    2837    1373
CTETRA     14603       1    2055    4939    4946    4938
CTETRA     14604       1    3330    1787    5422    1788
CTETRA     14605       1     450    1251    1596     802
CTETRA     14606       1      69    2928    2598    2802
CTETRA     14607       1    1552    1555    1184    1379
CTETRA     14608       1    1787    3321    1788    3330
CTETRA     14609       1    1170    1590    1555    1379
CTETRA     14610       1    2994    4958    4965    4959
CTETRA     14611       1    2243    2960    5506    5507
CTETRA     14612       1    5426    3343    2498    5425
CTETRA     14613       1    1016    1035    2134    1563
CTETRA     14614       1    1008     621    1006    1027
CTETRA     14615       1    1909    2506    2507    1876
CTETRA     14616       1    2927    3966    3993    3994
CTETRA     14617       1    2717    5103    5102    5122
CTETRA     14618       1    1744     270    1591    1746
CTETRA     14619       1    1590    1694    1382    1379
CTETRA     14620       1    1745    3966    3994    3967
CTETRA     14621       1    3011    5121    5097    5123
CTETRA     14622       1    2721    1555    1223    2780
CTETRA     14623       1     671     572     675    1030
CTETRA     14624       1    5708    1146    1147    1320
CTETRA     14625       1     181    1949    1474    1942
CTETRA     14626       1    2852    4982    4978    4933
CTETRA     14627       1    2793    2790    2732    4122
CTETRA     14628       1    2110     885    1937    2945
CTETRA     14629       1     556    1347      50      47
CTETRA     14630       1    1726    3617    3570    3616
CTETRA     14631       1     367     366     365     313
CTETRA     14632       1    2110    2112    2413    4677
CTETRA     14633       1     186    2747    5165    5143
CTETRA     14634       1    1224    4013    4019    4014
CTETRA     14635       1    1559    1562     906    2214
CTETRA     14636       1     365    1846    1996     368
CTETRA     14637       1     842     817     663    2518
CTETRA     14638       1    2091    1927    2043    1784
CTETRA     14639       1    2788    4615    4598    4614
CTETRA     14640       1    2596    3071    2595    4491
CTETRA     14641       1    2412    4493    5803    4196
CTETRA     14642       1    2091    1466    2142     904
CTETRA     14643       1    2565    4193    5801    4198
CTETRA     14644       1    1800    4238    1803    4289
CTETRA     14645       1    2594    4597    4614    4598
CTETRA     14646       1    4214    1829    2581    4189
CTETRA     14647       1    4204    1829    2581    4214
CTETRA     14648       1     915    4513    4449    4450
CTETRA     14649       1     311    1482     598    1089
CTETRA     14650       1    1114    4512    5789    4448
CTETRA     14651       1     596     597    5571    5570
CTETRA     14652       1    1256    4167    4868    5788
CTETRA     14653       1     384     911     910    4534
CTETRA     14654       1    1088    1089     596    2042
CTETRA     14655       1    1515    4131    1534    4130
CTETRA     14656       1     285     295    1359     296
CTETRA     14657       1     774    1831    1884    3050
CTETRA     14658       1    2788    2846    2594    4598
CTETRA     14659       1     294    1922     500    2140
CTETRA     14660       1    2054    4939    4940    4944
CTETRA     14661       1     125     113     112    2151
CTETRA     14662       1    1093     362    1094    2324
CTETRA     14663       1    2055    4966    4939    4938
CTETRA     14664       1    2056    4940    4933    4944
CTETRA     14665       1     816    2329    1092     364
CTETRA     14666       1    1286     846    1288     813
CTETRA     14667       1    2055    4944    4946    4939
CTETRA     14668       1     680     682     679     987
CTETRA     14669       1    1465    5521     312     311
CTETRA     14670       1     742    1890    1893     740
CTETRA     14671       1    2923    5048    4996    5047
CTETRA     14672       1    1269    2520     364     494
CTETRA     14673       1     684     685    1152     336
CTETRA     14674       1    2793    4120    1812    2370
CTETRA     14675       1     334     482    2624    2625
CTETRA     14676       1    2080    3006     997     998
CTETRA     14677       1     997    3711    3690    3691
CTETRA     14678       1     335     336     340    1152
CTETRA     14679       1    2184    2010    2185    1132
CTETRA     14680       1     547    2767    3082     999
CTETRA     14681       1     334     482    1341    2624
CTETRA     14682       1     157     154     162     156
CTETRA     14683       1    2652     335    2623    1152
CTETRA     14684       1    3047    3697    3712    3715
CTETRA     14685       1     685     336     335    1152
CTETRA     14686       1    1775    2034    2191     485
CTETRA     14687       1    2811    2340    4411    4412
CTETRA     14688       1    2109    3364    3429    3423
CTETRA     14689       1      26    1469    1202    2593
CTETRA     14690       1    2801    4418    4419    4411
CTETRA     14691       1     882     884     883     960
CTETRA     14692       1     300     301     310    1070
CTETRA     14693       1     522    2034    2840     523
CTETRA     14694       1    2950    1813    1780    1769
CTETRA     14695       1     925    1485    1770     926
CTETRA     14696       1    1780    4149    4145    4144
CTETRA     14697       1    1564    1549    4254    1551
CTETRA     14698       1     896     891     537     156
CTETRA     14699       1    1131    4240    4273    4241
CTETRA     14700       1    1660    1612    4239    4240
CTETRA     14701       1     197     198     196     942
CTETRA     14702       1    2006    4891    4471    4470
CTETRA     14703       1     495    1098     361     494
CTETRA     14704       1    1000    1775     958     899
CTETRA     14705       1      30    3657    1313    3653
CTETRA     14706       1    2006    4891    4470    4890
CTETRA     14707       1     399     402     401     903
CTETRA     14708       1    1001    1059    1003    1061
CTETRA     14709       1     593    2003    2002    2006
CTETRA     14710       1    1038    1562    1042    1035
CTETRA     14711       1    1559    2194     906    2074
CTETRA     14712       1    2117    2592    3399    3400
CTETRA     14713       1    2500    1856    5297     617
CTETRA     14714       1    2532    3422    3398    3397
CTETRA     14715       1    1559    1038    2194    2070
CTETRA     14716       1    3026    3924    1515    4161
CTETRA     14717       1    2645    3120    3117    3116
CTETRA     14718       1    2995    3116    3118    3109
CTETRA     14719       1    2350    3118    2369    2995
CTETRA     14720       1    2350    4058    3118    5649
CTETRA     14721       1    1016    2823    2720    1041
CTETRA     14722       1    1016    2720    1037    1041
CTETRA     14723       1     477    5070    5069    5075
CTETRA     14724       1    1038    2194    1037    1036
CTETRA     14725       1    1807    3166    3165    3167
CTETRA     14726       1    2313    3149    3148    3172
CTETRA     14727       1    1038    2194    2070    1041
CTETRA     14728       1     253     255    1462     256
CTETRA     14729       1    1424    1546    1499    1464
CTETRA     14730       1    4256    3539    4252    5758
CTETRA     14731       1    1496    4252    4256    3539
CTETRA     14732       1    1593    4253    5757    3523
CTETRA     14733       1    1652    5166    5172    5163
CTETRA     14734       1    1422    1613    1801    1612
CTETRA     14735       1    2063    3827    3872    3828
CTETRA     14736       1    1733    2222    2380    2607
CTETRA     14737       1    2950    5204    5203    5198
CTETRA     14738       1    1761    1322     224    1742
CTETRA     14739       1     219    1369    1885    1504
CTETRA     14740       1    5202    5203    3115    1780
CTETRA     14741       1    2212    5784    4142    4141
CTETRA     14742       1    1073    2551     309    2628
CTETRA     14743       1    1742     230    1738    2425
CTETRA     14744       1    2764    2425    2383    1742
CTETRA     14745       1     229    1899     963     220
CTETRA     14746       1     218     222     223    1841
CTETRA     14747       1    2632    2330     364    2329
CTETRA     14748       1    2949    2782    5050    4999
CTETRA     14749       1    2072    4302    4318    4315
CTETRA     14750       1    2027    2105     899    2104
CTETRA     14751       1    1735     224    1743    1763
CTETRA     14752       1    2741    2612    4943    2058
CTETRA     14753       1    2551    2628    4101    4116
CTETRA     14754       1    2478    4466    4465    4886
CTETRA     14755       1    1761      20    3004    1699
CTETRA     14756       1    2345     385     298     384
CTETRA     14757       1    2558    2557    4099    4114
CTETRA     14758       1    2765    1738    1742    1735
CTETRA     14759       1    1627    5376    1625    5377
CTETRA     14760       1    5374    5375    5868    4835
CTETRA     14761       1    1624    5377    1627    1625
CTETRA     14762       1    1016    1563    2134    1040
CTETRA     14763       1    1902    3230    2829    2823
CTETRA     14764       1    1863    2762    2836    2848
CTETRA     14765       1    2836    1863    2794    2762
CTETRA     14766       1    2509    3310    3311    3317
CTETRA     14767       1      88      77      87    1671
CTETRA     14768       1    1724    2078    2794     491
CTETRA     14769       1    3296    5071    5653    5065
CTETRA     14770       1    2842    2246    1208    2078
CTETRA     14771       1    1863    1862    2843    2836
CTETRA     14772       1    1946    3398    3422    3421
CTETRA     14773       1    1723    1726    1724    1729
CTETRA     14774       1    2532    5299    5295    5298
CTETRA     14775       1    1845     250    1209    1844
CTETRA     14776       1     484    3898    3899    3798
CTETRA     14777       1      80    2538    2284    1345
CTETRA     14778       1    1060    4995    5046    5047
CTETRA     14779       1    2855    4981    4978    4974
CTETRA     14780       1    2923    4996    4995    5047
CTETRA     14781       1    1777    2045    5467    5468
CTETRA     14782       1     373     390    5052     389
CTETRA     14783       1     485    3933    3926    3925
CTETRA     14784       1    2753    2257    4931    2258
CTETRA     14785       1     373    2158     389    5052
CTETRA     14786       1     507    1862    1724     634
CTETRA     14787       1    2885    3815    3807    3806
CTETRA     14788       1    2696    2699    2700    3816
CTETRA     14789       1    3859    2885     820    2884
CTETRA     14790       1    1074    4635    4466    4654
CTETRA     14791       1    1972     453    3090    1971
CTETRA     14792       1     838    1768     269    1694
CTETRA     14793       1    1480    5476    5477    5453
CTETRA     14794       1    1494    5445    5444    5468
CTETRA     14795       1     812     811     810    2355
CTETRA     14796       1     676     742     986     686
CTETRA     14797       1    2696    3861    3816    3860
CTETRA     14798       1    1190    4690    4755    4773
CTETRA     14799       1     481    1570     504     482
CTETRA     14800       1    2916    3611    3604    3605
CTETRA     14801       1     840     839    2292    2289
CTETRA     14802       1    4693    2420    4694    4785
CTETRA     14803       1    1768    1694    1379    1382
CTETRA     14804       1    2010    2185    1132    1287
CTETRA     14805       1    2961    4084    3696    5742
CTETRA     14806       1    2961    3703    4086    5742
CTETRA     14807       1    2709    3697    3047    2769
CTETRA     14808       1    2616    4103    4104    4078
CTETRA     14809       1    2961    2530    4084    4080
CTETRA     14810       1     332     337    1570     334
CTETRA     14811       1    2797    2798    2557    4116
CTETRA     14812       1     352     353     826     350
CTETRA     14813       1     300     306     299     309
CTETRA     14814       1    2406    2411    1311    2410
CTETRA     14815       1    2477     796    4709    4737
CTETRA     14816       1      28    3654    3652    3653
CTETRA     14817       1    2477    4743    4708    4707
CTETRA     14818       1    1305    4717    4707    4708
CTETRA     14819       1    2441    5271    5275    5215
CTETRA     14820       1     784    1540     566    2242
CTETRA     14821       1    1412    5271    5274    5275
CTETRA     14822       1     122     512     770    1212
CTETRA     14823       1     716    2621     721    2663
CTETRA     14824       1    1306     970    4707    4706
CTETRA     14825       1    1835    5241    4765    4706
CTETRA     14826       1    5486    5487    5510    1377
CTETRA     14827       1    4403    5819    5818    4862
CTETRA     14828       1      13    1146    1145    1318
CTETRA     14829       1     716     715    2990    2252
CTETRA     14830       1     716     721     719    2663
CTETRA     14831       1     382     385    2357     383
CTETRA     14832       1     828    1836    1079    1883
CTETRA     14833       1    2273    3480    3774    3765
CTETRA     14834       1    2124    3765    3481    3480
CTETRA     14835       1    1787     204    3321    3339
CTETRA     14836       1    2273    3480    3479    3774
CTETRA     14837       1     963    5407    1477    2561
CTETRA     14838       1    5357    1865    5372    5358
CTETRA     14839       1    2694    3519    3481    3517
CTETRA     14840       1    1069    1159     912    1124
CTETRA     14841       1      99     107    1805     100
CTETRA     14842       1     321    2889     323    2452
CTETRA     14843       1     299    2943    3013    2345
CTETRA     14844       1     912    1157    1158     915
CTETRA     14845       1    1157    2360     720    2545
CTETRA     14846       1    2923    4974    4995    4996
CTETRA     14847       1    2760    5721    3798    5722
CTETRA     14848       1    2932    3437    5720    3460
CTETRA     14849       1     290    1795    1794    2588
CTETRA     14850       1     870    2238    1358    2237
CTETRA     14851       1    2044    5588    5611    5612
CTETRA     14852       1     982    3436     483    3460
CTETRA     14853       1    2258    4932    4933    4940
CTETRA     14854       1    2963    3439    3440    3448
CTETRA     14855       1    2655    2164    2653    3445
CTETRA     14856       1    2157    3440    3461    3441
CTETRA     14857       1     912    1159    1157     914
CTETRA     14858       1     310    1073    2264    1619
CTETRA     14859       1     389    4992    4991    5043
CTETRA     14860       1    1004    4742    4732    4741
CTETRA     14861       1     100     542     717    2422
CTETRA     14862       1    2174    1166    1143     578
CTETRA     14863       1    3760    3060    3763    1979
CTETRA     14864       1    3054    3599    3625    3626
CTETRA     14865       1    1021    1173     381    1588
CTETRA     14866       1    1617    2390     546    3007
CTETRA     14867       1    1727    3606    3605    3617
CTETRA     14868       1    2897    3914    3888    3887
CTETRA     14869       1    1143     576    2171    2176
CTETRA     14870       1    3028    3869    3868    3888
CTETRA     14871       1    2987    4547    4551    4549
CTETRA     14872       1    2939    3979    3980    3914
CTETRA     14873       1    2174    2176    1143    2175
CTETRA     14874       1    1143     918    2912    2171
CTETRA     14875       1    2430    5139    5138    5149
CTETRA     14876       1    2981    5035    5034    5127
CTETRA     14877       1    3882    2698    2697    3862
CTETRA     14878       1    1121    1825    3786    3784
CTETRA     14879       1    2908    2690    3821    3847
CTETRA     14880       1    1601    2289    5011    5031
CTETRA     14881       1    2735    5178    5177    5182
CTETRA     14882       1    3020    3176    5672    3150
CTETRA     14883       1      73     553    2262    2265
CTETRA     14884       1     711    1650    1141    1617
CTETRA     14885       1    3020    3150    3149    3176
CTETRA     14886       1     206    3345    1787    5423
CTETRA     14887       1     206    1787    3345     204
CTETRA     14888       1     711     577    1143     578
CTETRA     14889       1     382    1143     918    2912
CTETRA     14890       1    1787     204    3339    3345
CTETRA     14891       1    1529    4220    4231    4232
CTETRA     14892       1     382     385     384      65
CTETRA     14893       1    2613    2126    2157    3444
CTETRA     14894       1    2562    4305    4306    4304
CTETRA     14895       1     526    1118    2875    1260
CTETRA     14896       1    2162    2963    3452    4309
CTETRA     14897       1    1682    4345    4301    4300
CTETRA     14898       1    1117    2546    2452    4173
CTETRA     14899       1    2926    4306    4297    4298
CTETRA     14900       1    2662    3450    3443    3442
CTETRA     14901       1    2830    1876    2023    2831
CTETRA     14902       1    5145    2430    5138    5149
CTETRA     14903       1    1637      61     878      55
CTETRA     14904       1    2080    2656    2079    2449
CTETRA     14905       1     548    2850     880    3007
CTETRA     14906       1    3764    3763    2627    3471
CTETRA     14907       1     547    3006     999    3082
CTETRA     14908       1    1977    3759    3664    3665
CTETRA     14909       1    3038    4619    4618    4637
CTETRA     14910       1    2262     305    2768     549
CTETRA     14911       1    2627    3663    3762    3764
CTETRA     14912       1    2013     753    2458     751
CTETRA     14913       1     959     176     177    4659
CTETRA     14914       1    2488    3858    3857    3855
CTETRA     14915       1    3600    2418    1010    3627
CTETRA     14916       1    3077    1071    1158    1895
CTETRA     14917       1    2264     310    2251    2262
CTETRA     14918       1      72    2530    2529    2265
CTETRA     14919       1     760    4986    4987    4968
CTETRA     14920       1     390    1892    5042     389
CTETRA     14921       1     914    4073    1124    1159
CTETRA     14922       1     714    2252     310     277
CTETRA     14923       1    1162    4075    5791    4088
CTETRA     14924       1    1162    4088    4089    4075
CTETRA     14925       1    1073    4101    2551    2628
CTETRA     14926       1    1227    2644     301    2638
CTETRA     14927       1     309    2551    2557    2798
CTETRA     14928       1    2414    2999    3603    3614
CTETRA     14929       1    1071    1073    1069     912
CTETRA     14930       1    2551     912    1124    1073
CTETRA     14931       1    1731     787    1006    1394
CTETRA     14932       1    1713    2110    2111    2112
CTETRA     14933       1    1787    5423    3345    5696
CTETRA     14934       1    1455    4047    4043    4053
CTETRA     14935       1    1451    3920    3985    3986
CTETRA     14936       1    1468    1007    1998    1475
CTETRA     14937       1    2002    2001    1996    2003
CTETRA     14938       1    2112    2336    2519    2048
CTETRA     14939       1    1273    1260    1276     845
CTETRA     14940       1    3199    2134    1571    1040
CTETRA     14941       1    2823    3216    3215    3230
CTETRA     14942       1    1118    4168    1117    4166
CTETRA     14943       1    2845    4888    4988    4967
CTETRA     14944       1     355     470    2119    2067
CTETRA     14945       1    2847    4883    4884    4463
CTETRA     14946       1     390    5042    1892    1893
CTETRA     14947       1     737    1544     691     959
CTETRA     14948       1     759    4889    4987    4890
CTETRA     14949       1      47    2574    2343    1349
CTETRA     14950       1    2752    4984    4971    4983
CTETRA     14951       1    1273    2555     844     845
CTETRA     14952       1    1787    5423    5696    5695
CTETRA     14953       1     356     556      53    2189
CTETRA     14954       1    2744    3355    3641    3651
CTETRA     14955       1     857     851      42     748
CTETRA     14956       1    2007    4889    4469    4468
CTETRA     14957       1     555    2742    2965    2997
CTETRA     14958       1    4892    2202    2814    2003
CTETRA     14959       1    2671    3088    4636    2672
CTETRA     14960       1    1787    5695    5422    5423
CTETRA     14961       1    1103    1104    1105    2851
CTETRA     14962       1    1115     915    4449    2432
CTETRA     14963       1     355    1815    1703    2784
CTETRA     14964       1    2443    4222    3008      36
CTETRA     14965       1    3076    3718    3721    3719
CTETRA     14966       1    1962    1966    2022    1963
CTETRA     14967       1    1969    2443    4222    3008
CTETRA     14968       1    2200    2878    2454    1099
CTETRA     14969       1    1109     831     828     830
CTETRA     14970       1     413     701     995     420
CTETRA     14971       1    2288    3840    3808    3807
CTETRA     14972       1    3001    3855    3854    3858
CTETRA     14973       1     760    4987    4967    4968
CTETRA     14974       1    1867     963     218    1460
CTETRA     14975       1    1962    1386    1372    2523
CTETRA     14976       1    3050    2877    4190    4215
CTETRA     14977       1    1214    2877    1884    3014
CTETRA     14978       1    2846    4597    2594    4598
CTETRA     14979       1    2608    2412    2773    2788
CTETRA     14980       1     356     357    1815    2190
CTETRA     14981       1     548    2850     998    2878
CTETRA     14982       1    4479    2599    2363    4674
CTETRA     14983       1    2338    4437    4433    4436
CTETRA     14984       1    1867    1885    2561    2559
CTETRA     14985       1    1735    1740    1743    2765
CTETRA     14986       1    2233    4846    4853    4847
CTETRA     14987       1    1938    1937    1404    4837
CTETRA     14988       1    2928      66    4399    4398
CTETRA     14989       1     262    2131     947    1412
CTETRA     14990       1     735    1163    2271    1005
CTETRA     14991       1     422     421     427     426
CTETRA     14992       1    1159    4091    4072    4073
CTETRA     14993       1    2432    4450    4870    4871
CTETRA     14994       1    1124    4073    4090    4091
CTETRA     14995       1    2504    4490    4595    4596
CTETRA     14996       1    4192     754     744    4217
CTETRA     14997       1    4561    4493    4198    5802
CTETRA     14998       1    1533    4229    4228    4227
CTETRA     14999       1    2777    2409    2402    1802
CTETRA     15000       1     743    5089    5092    5038
CTETRA     15001       1    3392    3097    3396    4404
CTETRA     15002       1     652    1050     651     423
CTETRA     15003       1    1382    1768    1694    2772
CTETRA     15004       1    1745    1746    3995    3994
CTETRA     15005       1    2449    2454    2448    2656
CTETRA     15006       1      35     879    2186    2547
CTETRA     15007       1     265     421     424     425
CTETRA     15008       1     552    5471    5495    5472
CTETRA     15009       1     574    2144    1020    1018
CTETRA     15010       1    1752    3307    3314    3306
CTETRA     15011       1    5147    5665    5666    3209
CTETRA     15012       1    1184    2939    1379    1555
CTETRA     15013       1    1019    1589    1661    1429
CTETRA     15014       1    3087    5142    5143    5147
CTETRA     15015       1     211    5147    3087    3209
CTETRA     15016       1     574    1065    1075     572
CTETRA     15017       1    2611    4965    4938    4937
CTETRA     15018       1    1969    3719    1970    2448
CTETRA     15019       1    2548      36    2547    4221
CTETRA     15020       1    1939    4958    4959    4839
CTETRA     15021       1    1203    2602    1947      17
CTETRA     15022       1      72    2353    2263    2370
CTETRA     15023       1     572    1065    1075    4031
CTETRA     15024       1    2258    4962    4932    4940
CTETRA     15025       1     574     570     567    1075
CTETRA     15026       1    1613     256     254    1628
CTETRA     15027       1    4630    1378    2502    2218
CTETRA     15028       1    1683    1299    2469    1300
CTETRA     15029       1     420     228    1322     698
CTETRA     15030       1    4969    3075    2515    4991
CTETRA     15031       1    2611    3081    2055    4938
CTETRA     15032       1    2106    1738     231    2107
CTETRA     15033       1    1478    1760    2952    5728
CTETRA     15034       1    1617    3022    2390    2391
CTETRA     15035       1     225     230     231    1738
CTETRA     15036       1     608    2207     609    2208
CTETRA     15037       1    1707     161    1704    1705
CTETRA     15038       1     130     531     284    1712
CTETRA     15039       1    1597    4876    5009    4877
CTETRA     15040       1    3083    3914    3887    3913
CTETRA     15041       1    2052     658     155    1579
CTETRA     15042       1     613    1520    1869    1519
CTETRA     15043       1    2123    2872    3080    1335
CTETRA     15044       1    2852    1261     406     656
CTETRA     15045       1    1750    2993    2845     759
CTETRA     15046       1     665     374     533    2521
CTETRA     15047       1    2612    4942    4935    4943
CTETRA     15048       1    2259    4960    4961    4962
CTETRA     15049       1    1881    4951    4947    4948
CTETRA     15050       1     962    4954    4953    4963
CTETRA     15051       1     774    2596    3050     775
CTETRA     15052       1     368    4679    4678    4711
CTETRA     15053       1    4845    4846    2234    4849
CTETRA     15054       1    1405    4845    4849    4838
CTETRA     15055       1     962    4954    4963    4964
CTETRA     15056       1    3097    2605    2340    2930
CTETRA     15057       1    3097    2930    3393    2802
CTETRA     15058       1    2187    2244    2328    1105
CTETRA     15059       1     956     899     893    2029
CTETRA     15060       1    2840    1991    2192     956
CTETRA     15061       1    2033     893     956    2034
CTETRA     15062       1    2970     152     151     153
CTETRA     15063       1    2573    2781     898    2104
CTETRA     15064       1     898     894    2036     151
CTETRA     15065       1    2005    3268    3271    3272
CTETRA     15066       1     956    1775     893     899
CTETRA     15067       1    2039    1963     829    2761
CTETRA     15068       1    1705    3245    3244    3272
CTETRA     15069       1    1883    3056    2396    2397
CTETRA     15070       1    1081    1080    1763    1086
CTETRA     15071       1    1082    2021    2750    2450
CTETRA     15072       1    2961    3703    3696    3697
CTETRA     15073       1    2708    5741    3700    4087
CTETRA     15074       1    2962    5743    3713    3696
CTETRA     15075       1    3082    2767    3716     999
CTETRA     15076       1    2962    3036    3082    3711
CTETRA     15077       1    3036    3714    5744    4205
CTETRA     15078       1    2962    3712    3713    3711
CTETRA     15079       1    2569    2568    1064    2571
CTETRA     15080       1    1588     411    1651     412
CTETRA     15081       1    2462    5725    5724    3462
CTETRA     15082       1    2652     440    2651    5088
CTETRA     15083       1    2474    2814    1881    4949
CTETRA     15084       1     849    5040     741    5041
CTETRA     15085       1     713    2791      93    1554
CTETRA     15086       1    1881    2915    2815    2814
CTETRA     15087       1     571     574    1018     568
CTETRA     15088       1    1552     668     670     834
CTETRA     15089       1    3075    4969    4990    4991
CTETRA     15090       1    2752    4931    4984    4983
CTETRA     15091       1    2363    2519    2111    4478
CTETRA     15092       1    2413    4677    4724    4714
CTETRA     15093       1    2569    1580     570    1075
CTETRA     15094       1    2569    1583    2572    2144
CTETRA     15095       1    1020    2144    2821    1589
CTETRA     15096       1    2111    4850    4477    4848
CTETRA     15097       1    2802    3097    4397    3396
CTETRA     15098       1     517    4394    4393    4401
CTETRA     15099       1     141    4415    4414    4422
CTETRA     15100       1     568    1018     570     574
CTETRA     15101       1    1324    2340    2811    1875
CTETRA     15102       1    3053    3491    3492    3490
CTETRA     15103       1    2286    3559    3479    3491
CTETRA     15104       1    2504    4612    4595    1378
CTETRA     15105       1     641    1323      11     655
CTETRA     15106       1    1945      17      14    1002
CTETRA     15107       1    1494     551     552    5470
CTETRA     15108       1    1376    2365    2499    2366
CTETRA     15109       1    1323      12      13     936
CTETRA     15110       1       9     281    1773     292
CTETRA     15111       1    2181    2575    2742    2997
CTETRA     15112       1    4605    4606    2686    4590
CTETRA     15113       1    1121    3787    3785    3786
CTETRA     15114       1    1825    3666    3753    3784
CTETRA     15115       1      86    3686    3750    3751
CTETRA     15116       1    2121    2874    2272    2274
CTETRA     15117       1       5       9     126     657
CTETRA     15118       1    2997    4605    4622    4623
CTETRA     15119       1    2615    2929    3580    2614
CTETRA     15120       1    1980    3759    3784    3785
CTETRA     15121       1    2945     960    2474     882
CTETRA     15122       1    2873    2872    3757    3080
CTETRA     15123       1     885     960    2945     882
CTETRA     15124       1     161    1704     159     157
CTETRA     15125       1    1144     279     280    1146
CTETRA     15126       1    4235    3484    5754    3526
CTETRA     15127       1     247    3040    2706    3065
CTETRA     15128       1    1142    1141    1643     549
CTETRA     15129       1     380    3030    2664     793
CTETRA     15130       1    2457    1744    4000    4010
CTETRA     15131       1    2198    3975    3971    3945
CTETRA     15132       1    1428    1655    1661     573
CTETRA     15133       1    1021    1459    1402    1588
CTETRA     15134       1    1925    2141    1929    1623
CTETRA     15135       1     340    5096    5080    5036
CTETRA     15136       1    4885    2478    5018    1153
CTETRA     15137       1    2460     791    3800    3799
CTETRA     15138       1    1070     305    2262     549
CTETRA     15139       1    2768    3699    3709    3707
CTETRA     15140       1    2708    3700    3703    3704
CTETRA     15141       1    3047    2769    3715    2767
CTETRA     15142       1    1785    2199    1920    5536
CTETRA     15143       1    1781    1779    5537    5514
CTETRA     15144       1    3023    1390    1446    3582
CTETRA     15145       1     154     162    1522    2052
CTETRA     15146       1    1308     860    3061    2020
CTETRA     15147       1    5561    1786    5538    5562
CTETRA     15148       1    2093    1490    2269    2099
CTETRA     15149       1    2290    1665    2832    5117
CTETRA     15150       1    2293    5116    5117    5126
CTETRA     15151       1    1785    1779    2199    5536
CTETRA     15152       1    2141    1920    1786    1785
CTETRA     15153       1    2093    2862    1089    2100
CTETRA     15154       1    2294    3728    3668    3669
CTETRA     15155       1    2899    3824    3843    3823
CTETRA     15156       1    3012     158    3265    3274
CTETRA     15157       1    1780    4141    4145    5204
CTETRA     15158       1     322    3043    2710    2996
CTETRA     15159       1    2212    5784    5204    5195
CTETRA     15160       1     931    2833     932    2004
CTETRA     15161       1    2212    4140    4141    4142
CTETRA     15162       1    5202    5677    3115    5676
CTETRA     15163       1    1205    1704     162    1206
CTETRA     15164       1    1205    2888    1704    1206
CTETRA     15165       1    4145    5202    5783    5782
CTETRA     15166       1    1780    4145    3130    3115
CTETRA     15167       1    1780    5202    4145    3115
CTETRA     15168       1    2068    1558    1561     814
CTETRA     15169       1    1780    5204    5202    5203
CTETRA     15170       1    1586    1561    1790    1584
CTETRA     15171       1    2950     923    1769    3043
CTETRA     15172       1    4145    5783    5202    5204
CTETRA     15173       1    2212    4142    2875    3043
CTETRA     15174       1    1575    1342    1343    1579
CTETRA     15175       1    1558    1704    2325    1707
CTETRA     15176       1     157    1205     162    2052
CTETRA     15177       1     541     875    1434    1458
CTETRA     15178       1    2944    5193    5192    5194
CTETRA     15179       1    2734    5178    3020    3176
CTETRA     15180       1    1205    2325    1704    2888
CTETRA     15181       1     401     400     942     196
CTETRA     15182       1    1941    1930    1356    2238
CTETRA     15183       1    2568    3144    3132    3133
CTETRA     15184       1    1706    1707    2833    1705
CTETRA     15185       1    1923     287    5604    5603
CTETRA     15186       1    1941    1623    1356    1930
CTETRA     15187       1    2869     296    2193    1811
CTETRA     15188       1    2566    5643    3144    3138
CTETRA     15189       1    3257    1704    1707    2325
CTETRA     15190       1    4039    3140    5645    5644
CTETRA     15191       1    1532    2200    2656    1758
CTETRA     15192       1    1521    1398    2230    2493
CTETRA     15193       1     755    4217    4229    4230
CTETRA     15194       1    2501    4489    4490    4558
CTETRA     15195       1    1440    1522    5056    5055
CTETRA     15196       1     539    1811    1798     528
CTETRA     15197       1    1195    1128     459     462
CTETRA     15198       1    2941    4061    4062    4111
CTETRA     15199       1    4189    3050    1829    2581
CTETRA     15200       1    2596     775    3071    4560
CTETRA     15201       1     773    3071    4558    2501
CTETRA     15202       1       8       9     281    1773
CTETRA     15203       1    2596    4560    4491    4492
CTETRA     15204       1     433     289     292       9
CTETRA     15205       1    3052    5800    4563    4559
CTETRA     15206       1    1653    5163    5172    5164
CTETRA     15207       1    5713    1793    5714    1798
CTETRA     15208       1     410    5176    5187    5177
CTETRA     15209       1     287    1923    5579    5603
CTETRA     15210       1     163    1363     203    1491
CTETRA     15211       1     206    2737     203     204
CTETRA     15212       1    2128    3984    3918    3983
CTETRA     15213       1    2253    1490    2255    2268
CTETRA     15214       1    2703    5185    5025    5183
CTETRA     15215       1    5451    1483    5475    1364
CTETRA     15216       1    1376    2255    1366    2365
CTETRA     15217       1    2254    1489    1363    2367
CTETRA     15218       1    5449     203    2498    5450
CTETRA     15219       1    5473     203    1364     616
CTETRA     15220       1     769    3611    3612    3604
CTETRA     15221       1    2730    4689    4690    4658
CTETRA     15222       1    4639    2188     177    3035
CTETRA     15223       1    1190    4755    4772    4773
CTETRA     15224       1    5472     552    5448     203
CTETRA     15225       1    3071    4558    4490    4562
CTETRA     15226       1    2565    3052    4559    4193
CTETRA     15227       1    2719    2868    3009    5109
CTETRA     15228       1    5425     206    3345    2737
CTETRA     15229       1     650    1934    3361    5277
CTETRA     15230       1    1788    3321    3322    3328
CTETRA     15231       1     534    2521    1522    2052
CTETRA     15232       1    3621     683    3632    3361
CTETRA     15233       1    3621    5277    3361    5859
CTETRA     15234       1    2613    3461    5719    3441
CTETRA     15235       1    1266    4980    4979    4936
CTETRA     15236       1    1359    5718    2026    5719
CTETRA     15237       1    2932    3460     483    3437
CTETRA     15238       1    2197    2618    2243    5531
CTETRA     15239       1    2498     203    2737     163
CTETRA     15240       1    1356    5720    5721    5608
CTETRA     15241       1     527     526    5196    5197
CTETRA     15242       1     527    2626    5201    5200
CTETRA     15243       1    1682    4345    4300    4344
CTETRA     15244       1     527    2626    2712    5201
CTETRA     15245       1    2160    2159    4993    3098
CTETRA     15246       1    2613    5719    5718    3441
CTETRA     15247       1    4934    1267    2612    4935
CTETRA     15248       1    2445    5432    2342    5455
CTETRA     15249       1    2056    4934    4942    4944
CTETRA     15250       1     322     926    2996     323
CTETRA     15251       1    1276    3043     526    2710
CTETRA     15252       1    2212    1780    4144    1769
CTETRA     15253       1     527    1809    5200     524
CTETRA     15254       1    2458    2016    3772    3478
CTETRA     15255       1    3097    2605    4405    4404
CTETRA     15256       1     527     524    5196     526
CTETRA     15257       1    4950    4891    2815    4928
CTETRA     15258       1    2530    2265    2736    2529
CTETRA     15259       1    1537    1216    2728    1614
CTETRA     15260       1    5488    2837    5487    5464
CTETRA     15261       1    1643    1644    2768    1649
CTETRA     15262       1    3081    4964    4965    4958
CTETRA     15263       1    1636    1536    1637    2301
CTETRA     15264       1    2054    4966    4960    4939
CTETRA     15265       1    4404    3097    3396    4397
CTETRA     15266       1    2923    4975    4974    4996
CTETRA     15267       1    2254    2622    2367    2508
CTETRA     15268       1    1216    1136    1635    2376
CTETRA     15269       1    5427    5700    3347    3350
CTETRA     15270       1    1848    5904    5905    5550
CTETRA     15271       1    1401    4347    4346    4350
CTETRA     15272       1     552    5493    5494    5470
CTETRA     15273       1    4935    4934    4942    2612
CTETRA     15274       1    1731    1113    2002    1997
CTETRA     15275       1    2476    4719    1882    1406
CTETRA     15276       1    2476    1406    4721    4719
CTETRA     15277       1    2364    2869     296    2193
CTETRA     15278       1    2089    2086    2668    2088
CTETRA     15279       1    2056    4944    4933    4934
CTETRA     15280       1    2041    1512    2312    4376
CTETRA     15281       1    1493    1373    2099    2837
CTETRA     15282       1    2229    2097     598    1482
CTETRA     15283       1    1409    1406    1882    1305
CTETRA     15284       1     989     962    1881    2259
CTETRA     15285       1    1105    1103    2328    1630
CTETRA     15286       1     474      23     753    1134
CTETRA     15287       1    1994    3439    3459    3440
CTETRA     15288       1    2916    3605    3606    3610
CTETRA     15289       1    1143    2171    2912    2175
CTETRA     15290       1     342     348    1932    1352
CTETRA     15291       1    2650    4466    4467    4654
CTETRA     15292       1    2650    4466    4887    4467
CTETRA     15293       1    3088    4655    4636    4635
CTETRA     15294       1     343    2759    2328    2786
CTETRA     15295       1     494    3903    3931    3904
CTETRA     15296       1     997    2449     998    3690
CTETRA     15297       1    2845    4888    4467    4887
CTETRA     15298       1    2845    4467    4888    4468
CTETRA     15299       1     958     943     957     982
CTETRA     15300       1    4685    2647    2650    4654
CTETRA     15301       1     958     957    1994     982
CTETRA     15302       1    2851    3793    3792    3748
CTETRA     15303       1     958     195    2800    2963
CTETRA     15304       1     775    4564    4560    4559
CTETRA     15305       1    2504    4489    4595    4490
CTETRA     15306       1    2851    3792    3782    3781
CTETRA     15307       1     958    2963    2905    1994
CTETRA     15308       1      36    4064    2547    4221
CTETRA     15309       1     103    3619    3622    3623
CTETRA     15310       1      17    2602    2958    2808
CTETRA     15311       1     666    3622     667     103
CTETRA     15312       1    2814    4952    4893    4892
CTETRA     15313       1     624    5264    5288    5289
CTETRA     15314       1     553    2767    2766    2368
CTETRA     15315       1    2413    4678    4677    4714
CTETRA     15316       1    2413    4475    4677    4678
CTETRA     15317       1    2905    2108    2800     958
CTETRA     15318       1    1881    4952    4951    4948
CTETRA     15319       1    3081    2055    4938    4966
CTETRA     15320       1    1578    1558    1560    2447
CTETRA     15321       1    1342    1042    1562    1557
CTETRA     15322       1    3054    3600    3599    3626
CTETRA     15323       1     424    1934     423     652
CTETRA     15324       1    3006     997     998     999
CTETRA     15325       1    1728    3599    3606    3598
CTETRA     15326       1    1724    2298    2299    1725
CTETRA     15327       1     537     156     155     896
CTETRA     15328       1     158     159    2883     160
CTETRA     15329       1     159    2036    3279    3280
CTETRA     15330       1    1816    4194    5799    4195
CTETRA     15331       1    2547     879    2186    2941
CTETRA     15332       1    3052    4559    4563    4564
CTETRA     15333       1    2503    2502    2595    2504
CTETRA     15334       1    3071    4560    4562    4491
CTETRA     15335       1    2122    2874    3775    3776
CTETRA     15336       1     307    3077    2910    3013
CTETRA     15337       1    2828    4085    5739    4083
CTETRA     15338       1    1584    1561    1790    1563
CTETRA     15339       1     954     867     283    3081
CTETRA     15340       1    2601    4085    4077    4078
CTETRA     15341       1    2739    3705    3704    3698
CTETRA     15342       1    2708    3703    5741    4086
CTETRA     15343       1     326     330     324     318
CTETRA     15344       1    2030     325     318     326
CTETRA     15345       1     913    2433    4074    4075
CTETRA     15346       1     530     540     872     528
CTETRA     15347       1    4517    4098    5792    5793
CTETRA     15348       1     611    2231    2230    2087
CTETRA     15349       1    1114    4171    4448    5789
CTETRA     15350       1    3718    4208    5748    5747
CTETRA     15351       1    1262     407     657     866
CTETRA     15352       1    2801    4418    4411    3388
CTETRA     15353       1    2352    2351    3008    4066
CTETRA     15354       1     329    1606     514     518
CTETRA     15355       1    2885    3815    3806    3859
CTETRA     15356       1    2353    2351    4107    2370
CTETRA     15357       1     437    2046     436     439
CTETRA     15358       1     196    2025     198    1995
CTETRA     15359       1    1774    3991    3949    3948
CTETRA     15360       1    4719    1305    4718    1882
CTETRA     15361       1     194    2126    2157    2613
CTETRA     15362       1     197     199    1000     190
CTETRA     15363       1    2288    3468    3808    3469
CTETRA     15364       1     198     942    2026    2025
CTETRA     15365       1    3086    3972    3969    3971
CTETRA     15366       1     440    5081    5082    5088
CTETRA     15367       1    2488    3855    2487    3001
CTETRA     15368       1     194     195    2226     191
CTETRA     15369       1    2652    5089    5081    5088
CTETRA     15370       1     194     200    2613    2157
CTETRA     15371       1    2258    4962    4940    4960
CTETRA     15372       1     599    1397     611    1398
CTETRA     15373       1     735    2271      28    3654
CTETRA     15374       1    1144    5730    1148    1473
CTETRA     15375       1     642     647    4442    4427
CTETRA     15376       1    1710    4364    4363    4379
CTETRA     15377       1    2349    5482    5458    5481
CTETRA     15378       1     642    2610    4435    4442
CTETRA     15379       1     962    1881    2259    4961
CTETRA     15380       1     642     647    4427    4420
CTETRA     15381       1     642    4435    2610    4429
CTETRA     15382       1    4962    2259    1881    4961
CTETRA     15383       1     946    1913     140    2317
CTETRA     15384       1    2826    3075    2136    2516
CTETRA     15385       1    2628    4102    4101    4117
CTETRA     15386       1    2793    4123    4120    4119
CTETRA     15387       1     705    1138    1249    1166
CTETRA     15388       1     642    2482    4421    4429
CTETRA     15389       1     642    4421    2427    4420
CTETRA     15390       1    3013    4522    2910    4504
CTETRA     15391       1    1882    1410    5270    2362
CTETRA     15392       1    2120    4645    4646    4627
CTETRA     15393       1    1240    1309    2614    2619
CTETRA     15394       1    2351      34    4065    4108
CTETRA     15395       1    2982    3480    3491    3479
CTETRA     15396       1    2458    3773    3478    3772
CTETRA     15397       1    1308    2639    1307    3061
CTETRA     15398       1    2899    2907    3823    3843
CTETRA     15399       1    2678    2405    1420    1241
CTETRA     15400       1    1306    1882    1410    5272
CTETRA     15401       1    1973    2336    1857    5834
CTETRA     15402       1    1937    4848    4837    4849
CTETRA     15403       1    1937    4476    4836    4848
CTETRA     15404       1    2953    1320    5709    5710
CTETRA     15405       1    4893    3095    3048    4894
CTETRA     15406       1    2984     854     852    2931
CTETRA     15407       1     747     748    1421     750
CTETRA     15408       1    1309    2929    2619    2421
CTETRA     15409       1    4472    2202    3048    4893
CTETRA     15410       1      52    2178     854    1919
CTETRA     15411       1     313    1713    2413    2110
CTETRA     15412       1    2259    4963    4961    4960
CTETRA     15413       1    1163    1640    1010     119
CTETRA     15414       1     326    2611    2490    4937
CTETRA     15415       1     633     632    2416     425
CTETRA     15416       1     118      81    1640      82
CTETRA     15417       1     547    2767     999    2766
CTETRA     15418       1     786     788     797     796
CTETRA     15419       1    4306    4305    3454    5779
CTETRA     15420       1    2926    2089    4298    4297
CTETRA     15421       1    2926    2162    2156    3453
CTETRA     15422       1     195    2635    2562    2226
CTETRA     15423       1    1397    2089    2085    2087
CTETRA     15424       1     781     620     780    2890
CTETRA     15425       1    2558    4114    4099    4098
CTETRA     15426       1    1114     914    4169    4170
CTETRA     15427       1     117     505     119    1964
CTETRA     15428       1     784     781     797    2239
CTETRA     15429       1     795     798     367    1407
CTETRA     15430       1    1158    4509    4513    4450
CTETRA     15431       1    1952    3663    3858    3664
CTETRA     15432       1    1007    1731    1996    1997
CTETRA     15433       1    2188    2575    4622    2742
CTETRA     15434       1    2343     370    2997    2574
CTETRA     15435       1     566    2242    2241     784
CTETRA     15436       1    2351    2370      34    4108
CTETRA     15437       1     291    1623    1941    1527
CTETRA     15438       1    1147    5729    1940    1772
CTETRA     15439       1    1940     316    5616    1847
CTETRA     15440       1      60     549     553     546
CTETRA     15441       1    1772    5728    1528    1760
CTETRA     15442       1    1963     829    2761     352
CTETRA     15443       1     596    1087    5546    5547
CTETRA     15444       1     187     186     188    1429
CTETRA     15445       1    1656    1659    3087     186
CTETRA     15446       1    5833    2519    2336    2599
CTETRA     15447       1     313    1713    1716    2413
CTETRA     15448       1    1881    4948    4947    4961
CTETRA     15449       1    2566    4033    2568    3144
CTETRA     15450       1    1457    1823    3003    1718
CTETRA     15451       1    2305     621    3413    3355
CTETRA     15452       1    2257    4962    4947    4931
CTETRA     15453       1     541    1823    1458    1581
CTETRA     15454       1    4434    4854    5814    5813
CTETRA     15455       1    1457    1581    1823    1583
CTETRA     15456       1     570    1581    1583    1823
CTETRA     15457       1     886    2084    2083    1454
CTETRA     15458       1    2567    1580    4035    4038
CTETRA     15459       1    1872    1415     834    1664
CTETRA     15460       1    1414    1419    1433    1430
CTETRA     15461       1    1654    2464    2746    2535
CTETRA     15462       1    1661    1659    1656     188
CTETRA     15463       1    1020    2646    2571     776
CTETRA     15464       1    1901    1887    1921    1507
CTETRA     15465       1     397    2191    2641     484
CTETRA     15466       1     267     953     944     940
CTETRA     15467       1    2480    4434    5813    4854
CTETRA     15468       1     572    1065    4031    4027
CTETRA     15469       1    3036    3713    3714    3711
CTETRA     15470       1     400    2932    2213    2760
CTETRA     15471       1    1969    3689    5745    4206
CTETRA     15472       1    2213    2191     397     484
CTETRA     15473       1      33     548    2080    2079
CTETRA     15474       1    1240    2619     851    1241
CTETRA     15475       1     118      76     512     823
CTETRA     15476       1    1973    1857    5308    5834
CTETRA     15477       1    1169    5122    5121    5124
CTETRA     15478       1     504    3015    1565    2832
CTETRA     15479       1     592    4891    2006    4890
CTETRA     15480       1     693     695     176     691
CTETRA     15481       1     393    2690    1135    2903
CTETRA     15482       1    2652     743    5092     740
CTETRA     15483       1     838    1331     732     269
CTETRA     15484       1    2704     704    2297     709
CTETRA     15485       1    4334    3449    5776    5777
CTETRA     15486       1    2130     567    4032    2665
CTETRA     15487       1     147     387    2964     395
CTETRA     15488       1    2225     580    2665    2983
CTETRA     15489       1    2987     805     502    1197
CTETRA     15490       1    2553    5004    5024    5025
CTETRA     15491       1    2684    3894    3893    3920
CTETRA     15492       1     445     448     802     450
CTETRA     15493       1    3042     141    4423    4416
CTETRA     15494       1     966     799     805     706
CTETRA     15495       1    2907    2704     704    2297
CTETRA     15496       1    2480    2363    2233    4847
CTETRA     15497       1    3042    2317    4865    4859
CTETRA     15498       1    2235    3423    3429    3426
CTETRA     15499       1    2578    4864    4863    4867
CTETRA     15500       1    2480    4432    2482    2610
CTETRA     15501       1    1423    1426     973    2777
CTETRA     15502       1    1427    1804     996     973
CTETRA     15503       1    2256    4951    4930    4947
CTETRA     15504       1    2239    2240    4736    4728
CTETRA     15505       1    3418    5729    1473    1478
CTETRA     15506       1    1973    2519    4726    4727
CTETRA     15507       1    2604    2267    2788    2773
CTETRA     15508       1    4437    4433    4479    2599
CTETRA     15509       1    1464    1499    2757    1545
CTETRA     15510       1    2363    4479    4478    4847
CTETRA     15511       1     283     131    2994    3081
CTETRA     15512       1    5812    4433    4479    4437
CTETRA     15513       1    2480    4479    5813    4433
CTETRA     15514       1    1424    1801    1425    1889
CTETRA     15515       1    1973    4727    5891    4725
CTETRA     15516       1    2220     995    1733    2224
CTETRA     15517       1    2281    5185    5161    5026
CTETRA     15518       1    3003    3151    3135    3145
CTETRA     15519       1    2142    5517    1467    2135
CTETRA     15520       1    2413    4711    1407     368
CTETRA     15521       1    1652    5162    5175    5166
CTETRA     15522       1    2841    3182    3178    3174
CTETRA     15523       1    5517    5494    5518    2142
CTETRA     15524       1     572    1065    4027    1045
CTETRA     15525       1    1057    1043    3100    4017
CTETRA     15526       1     959    4659     177    4639
CTETRA     15527       1    2151    3468    3467    3807
CTETRA     15528       1    2091    2135    1784    2043
CTETRA     15529       1    2142    5494    5518    5495
CTETRA     15530       1     616    5472    5473     203
CTETRA     15531       1    1198    1154    2847    3078
CTETRA     15532       1    2901    4657    4656    4688
CTETRA     15533       1    5520     615    5496    1465
CTETRA     15534       1    1633    1100    1101    1099
CTETRA     15535       1    2091     550    1488    1782
CTETRA     15536       1     775    4564    4562    4560
CTETRA     15537       1    2093    2100    1089    1927
CTETRA     15538       1    2565    5801    4559    4561
CTETRA     15539       1    2565    4193    4559    5801
CTETRA     15540       1    5519     615    5520     904
CTETRA     15541       1    5496     615    5519    5495
CTETRA     15542       1    1296     198     942    2026
CTETRA     15543       1    2760     398     397     400
CTETRA     15544       1    1263     601    1303    1266
CTETRA     15545       1    2024    2026     942    2025
CTETRA     15546       1     389    5052    5043    5095
CTETRA     15547       1     374    5053    5085    5087
CTETRA     15548       1     171    1887     661    1888
CTETRA     15549       1    1341    1169    1343    1168
CTETRA     15550       1     338     337     331     340
CTETRA     15551       1     804    1135    1140     704
CTETRA     15552       1    2669    3704    2709    2739
CTETRA     15553       1     332     730     272     269
CTETRA     15554       1    2722    3675    3705    3699
CTETRA     15555       1    2251    2670    2669    2722
CTETRA     15556       1    2709    2739    3698    2769
CTETRA     15557       1     685     676     681     336
CTETRA     15558       1     676     684     686     678
CTETRA     15559       1     685     333     336     681
CTETRA     15560       1     985     661     495    2642
CTETRA     15561       1    4992    2160    2515    4971
CTETRA     15562       1    2461    3799    3899    3900
CTETRA     15563       1     389    5043    4991    5042
CTETRA     15564       1     389    5043    5052    5044
CTETRA     15565       1    2454    2079    2656    2449
CTETRA     15566       1    2158    5052    5077    5044
CTETRA     15567       1    1102    1231    1106    1220
CTETRA     15568       1    1791    1106    1333    2122
CTETRA     15569       1    2445    5479    5480    5456
CTETRA     15570       1    1683    1299    1531    2469
CTETRA     15571       1    1531    1533    2469    1530
CTETRA     15572       1     552    5494    5471    5470
CTETRA     15573       1    2195    5465    5466    5442
CTETRA     15574       1     348    1352    1346    2376
CTETRA     15575       1    1215    1218     773    2729
CTETRA     15576       1    2588     499    5575    5576
CTETRA     15577       1    1215    3058    2729     773
CTETRA     15578       1    1757    1285    1333    2470
CTETRA     15579       1    1537     772    2495    1817
CTETRA     15580       1    1777    5491    5467    5490
CTETRA     15581       1    2568    1720    3133    2570
CTETRA     15582       1    4230     755    2186    1529
CTETRA     15583       1    2342    1480    1483    2254
CTETRA     15584       1    1356    5608    5721    5609
CTETRA     15585       1    1920    5536    5535    5559
CTETRA     15586       1      58    1532    1531    1757
CTETRA     15587       1    2388    4833    2387    4814
CTETRA     15588       1    4220    2548    1529    2547
CTETRA     15589       1     570    1075    1580    2130
CTETRA     15590       1    1583    1823    1718    2572
CTETRA     15591       1    2572    1823    1822    2144
CTETRA     15592       1    1583     570    1580    1581
CTETRA     15593       1    5515    5492    5516    1776
CTETRA     15594       1    2569    2567    1719    1580
CTETRA     15595       1    2199    5535    5536    5512
CTETRA     15596       1    2569     574    1075     570
CTETRA     15597       1      22      23    2286     749
CTETRA     15598       1      20    1322    1761    3053
CTETRA     15599       1     552    5494    5495    5471
CTETRA     15600       1     414     697      21    1134
CTETRA     15601       1    1920    5558    5582    5559
CTETRA     15602       1    5375    4833    1627    2388
CTETRA     15603       1     467     474     465    2017
CTETRA     15604       1    1235    1378    2504     216
CTETRA     15605       1    1236    1685     774    1831
CTETRA     15606       1     700    1759    2502    2594
CTETRA     15607       1    2123     978     981    2694
CTETRA     15608       1     976    1615     974    1230
CTETRA     15609       1    2398    1389    1446    3023
CTETRA     15610       1     316    5726    5727    5614
CTETRA     15611       1    2398    2020    2513    3061
CTETRA     15612       1    1834     350    2021    1963
CTETRA     15613       1    1383    5434    3319    3315
CTETRA     15614       1    5415    3306    5687    5688
CTETRA     15615       1    1239    1111     860     831
CTETRA     15616       1    2569    2568    2570    1720
CTETRA     15617       1    2398    2513    1177    1180
CTETRA     15618       1     182     991    2915    1878
CTETRA     15619       1     545    2713    1435    1226
CTETRA     15620       1      37      28    2271    1395
CTETRA     15621       1      28    3653     442    3654
CTETRA     15622       1    5415    3306    5688    3327
CTETRA     15623       1      28    3653      30     442
CTETRA     15624       1      28    3652    1395    2902
CTETRA     15625       1      28    2271    3643    3654
CTETRA     15626       1    2044    5590    5589    5613
CTETRA     15627       1    1087    5524    5523    5547
CTETRA     15628       1    5483    5482    2392    5506
CTETRA     15629       1      28    2271    1395    3643
CTETRA     15630       1     318     319    2030     284
CTETRA     15631       1    1525    5613    5725    5726
CTETRA     15632       1    1404     283     953     944
CTETRA     15633       1    2633     368    3048    1996
CTETRA     15634       1    1981    1996    1982     365
CTETRA     15635       1    3095    1982    2474    2814
CTETRA     15636       1     806    1198    3078    1154
CTETRA     15637       1    5530    5531    2243    5507
CTETRA     15638       1    1119    2890     781     780
CTETRA     15639       1     866    1296    2026    2364
CTETRA     15640       1      40    1271     443     564
CTETRA     15641       1      38    1119     733     561
CTETRA     15642       1    1163      37    1948    1207
CTETRA     15643       1    1119    1113     781    2890
CTETRA     15644       1    1119     780    1974    2796
CTETRA     15645       1     564     443    2329    1271
CTETRA     15646       1      41      40     564    1271
CTETRA     15647       1     499    2140    5574     500
CTETRA     15648       1    2955    1377    5509    5510
CTETRA     15649       1    5428    5700    5701    3347
CTETRA     15650       1    2203    2136    1754    2827
CTETRA     15651       1     148     727    1200    1539
CTETRA     15652       1    1348    4486    4568    4485
CTETRA     15653       1    1482    5500    5477    5476
CTETRA     15654       1     113     443     444      40
CTETRA     15655       1      40     564     443     442
CTETRA     15656       1    1779    5513    5489    5512
CTETRA     15657       1     848    1153    1753     686
CTETRA     15658       1    5564    1926    5540    2043
CTETRA     15659       1     745    1544     737     738
CTETRA     15660       1     443    1270    2435    2330
CTETRA     15661       1    1749    1272    1097    1748
CTETRA     15662       1      48      43      45      49
CTETRA     15663       1    1460    1461    2388    1462
CTETRA     15664       1    2863    5255    1055    5254
CTETRA     15665       1    1129    2009    2759      85
CTETRA     15666       1    1847    5618    5594    5617
CTETRA     15667       1    5559    5560    1920    5536
CTETRA     15668       1     347     369    2574    1348
CTETRA     15669       1      54    1220    1535    1756
CTETRA     15670       1     555    2446    2742    2181
CTETRA     15671       1    1931    5564    5588    5565
CTETRA     15672       1      49    1347      47      50
CTETRA     15673       1    2121    2272    1104    2274
CTETRA     15674       1    1215    1312     774     773
CTETRA     15675       1    2286    1134    2458     753
CTETRA     15676       1    1347    1350    2344    2527
CTETRA     15677       1    1767    2295    1193     387
CTETRA     15678       1     434     437     441     984
CTETRA     15679       1     183     182     565      32
CTETRA     15680       1     502     452    2893    2986
CTETRA     15681       1     703     704     702    1137
CTETRA     15682       1     145    1972     453    2724
CTETRA     15683       1    5378    4834    4817    2375
CTETRA     15684       1     445     705    1138     450
CTETRA     15685       1     904    5542    5543    5519
CTETRA     15686       1    2216     840    2289    1989
CTETRA     15687       1     758     764     766     762
CTETRA     15688       1    2863    5243    1524    5255
CTETRA     15689       1    1793    5712    5713    5600
CTETRA     15690       1     753     749    2013    2286
CTETRA     15691       1    2342    5431    5432    3317
CTETRA     15692       1      88    1860    1671    2249
CTETRA     15693       1    4660    2323    4692     174
CTETRA     15694       1     136     456    2125     453
CTETRA     15695       1    1686    1687    2209    1851
CTETRA     15696       1     328      67    1911    1912
CTETRA     15697       1    5433    5706    3316    3317
CTETRA     15698       1    5501    2229    5478    5502
CTETRA     15699       1    5502     598    5501    2229
CTETRA     15700       1    2137    2576    2149    2031
CTETRA     15701       1    2057    1712    2058    1711
CTETRA     15702       1     161     159    1705    2005
CTETRA     15703       1     299    2550    2549    2943
CTETRA     15704       1    2196    5557    5556    5580
CTETRA     15705       1     917     880    1617     546
CTETRA     15706       1     969     971    1472    1471
CTETRA     15707       1      61      64     878      63
CTETRA     15708       1      33     546     548     880
CTETRA     15709       1    1482    5477    5500    5501
CTETRA     15710       1    1396    1624    1337    4244
CTETRA     15711       1    1374    5459    5483    5460
CTETRA     15712       1    1494    1787    5445    5446
CTETRA     15713       1    1353    4565    4566    4568
CTETRA     15714       1    1482    5524    5500    5523
CTETRA     15715       1      62      65     385     382
CTETRA     15716       1    2793    4119    2263    4123
CTETRA     15717       1      88    1861    1863    2250
CTETRA     15718       1    2161    4982    4978    2852
CTETRA     15719       1    2852    4933    2753    4982
CTETRA     15720       1    1681    1958    5212    5245
CTETRA     15721       1    5476    1365    1482    5475
CTETRA     15722       1    2852    2056    4933    4934
CTETRA     15723       1    5513    5512    1779    5536
CTETRA     15724       1    2852    4934    1267    2056
CTETRA     15725       1    2863    5257    5261    2248
CTETRA     15726       1    1624    1337    4244    4264
CTETRA     15727       1    1711    2055    1712     131
CTETRA     15728       1    1261    2852    2855    1267
CTETRA     15729       1     597    5571    5572    5548
CTETRA     15730       1     578    1247    1246    2174
CTETRA     15731       1     494    3803    3903    3904
CTETRA     15732       1    1245     805    1247    1250
CTETRA     15733       1    1625    1610    1611    1337
CTETRA     15734       1    1245     450    1251    1598
CTETRA     15735       1    1598     450    1249    1245
CTETRA     15736       1     576    1247    1246     578
CTETRA     15737       1     917     880      63    1609
CTETRA     15738       1     316    5614    5727    5615
CTETRA     15739       1    1674    1524    2863    5243
CTETRA     15740       1     451     450    1598    1251
CTETRA     15741       1     706    1247     965     578
CTETRA     15742       1    4682    2201    4470     587
CTETRA     15743       1    1027    1026    3650    3649
CTETRA     15744       1    1666    2988     575    1196
CTETRA     15745       1     965     576    1247    2967
CTETRA     15746       1     904    5566    5542    5565
CTETRA     15747       1    2960    5505    5506    5482
CTETRA     15748       1    2603    2485     653    4446
CTETRA     15749       1     487     486     833     832
CTETRA     15750       1    1087    5547    5523    5546
CTETRA     15751       1    2184     928    3937     495
CTETRA     15752       1    1269     679     821    2520
CTETRA     15753       1    2392    5507    5483    5506
CTETRA     15754       1     686     849     741     742
CTETRA     15755       1    5548    5524     598    1087
CTETRA     15756       1    2096    1785    1779    2199
CTETRA     15757       1    2240    2792    4735    4730
CTETRA     15758       1    2445    5480    5457    5456
CTETRA     15759       1     300     310     309    1070
CTETRA     15760       1    2243    5530    5506    5529
CTETRA     15761       1    2509    2622    2508    3310
CTETRA     15762       1    2393    5435    5458    5459
CTETRA     15763       1     703     702    1139    1137
CTETRA     15764       1    1247    1245    1248    1249
CTETRA     15765       1    2174    1166    1247    1248
CTETRA     15766       1    2816    1958    5212    1960
CTETRA     15767       1    5211    2816    1958    5212
CTETRA     15768       1    1692    1824    1691     829
CTETRA     15769       1    1960    1681    5212    2866
CTETRA     15770       1    1960    1681    2227    1959
CTETRA     15771       1     904    5518    5541    5542
CTETRA     15772       1    1681    1959    1960    1958
CTETRA     15773       1    5528    2243    2960    5529
CTETRA     15774       1    1482    2229    5478    5501
CTETRA     15775       1    2253    1488    2097    2092
CTETRA     15776       1    1781    2135    5539    1926
CTETRA     15777       1    1776    1781    5516    5515
CTETRA     15778       1     551    1777    1494    1487
CTETRA     15779       1    1927    2091    1782    1784
CTETRA     15780       1    2096    2955    2197    2199
CTETRA     15781       1    1438    1436    2094    1849
CTETRA     15782       1    1849    2949    2491    2071
CTETRA     15783       1     655    2485     653    2603
CTETRA     15784       1    2027    3303    2108    1439
CTETRA     15785       1    5425    5698    3344    3345
CTETRA     15786       1    2109    2801    3365    3425
CTETRA     15787       1    2533    4264    1624    5381
CTETRA     15788       1     193     195    2861    2108
CTETRA     15789       1    1437    4317    1438    1439
CTETRA     15790       1    2229    1481    2097    1482
CTETRA     15791       1     552    5471    5448    5447
CTETRA     15792       1    2533    5381    1624    5379
CTETRA     15793       1    2093    1089     598    2092
CTETRA     15794       1     259    1848    2862    2139
CTETRA     15795       1    2837    5488    5512    5489
CTETRA     15796       1    2268    2253    2097    2348
CTETRA     15797       1    1779    5537    5513    5536
CTETRA     15798       1    2229     598    5526    5502
CTETRA     15799       1    1088    5545    5569    5546
CTETRA     15800       1     259    2229    5503    5902
CTETRA     15801       1    2811    2801    4411    2341
CTETRA     15802       1    1627    1191    1624    1625
CTETRA     15803       1    2229    2862     259     598
CTETRA     15804       1    5448    5449     203    5425
CTETRA     15805       1     615    5495    5496    5472
CTETRA     15806       1    1921    3943    3942    3955
CTETRA     15807       1    2195    1493    2837    1376
CTETRA     15808       1    2269    2960    2392    2349
CTETRA     15809       1    2348    2393    5458    2349
CTETRA     15810       1    4425    2479    4446    4447
CTETRA     15811       1     596    5548    5547    5571
CTETRA     15812       1    1963    2022    1834     350
CTETRA     15813       1    2397    1177    2972    2514
CTETRA     15814       1    2615    1310    2614    2999
CTETRA     15815       1    2243    5553    5530    5529
CTETRA     15816       1    2960    5504    5528    5505
CTETRA     15817       1     695     691    1544    2730
CTETRA     15818       1     826    2415    1447    2919
CTETRA     15819       1     828     352    1883    2022
CTETRA     15820       1    2623    5081    5080    5097
CTETRA     15821       1     499    5553    5552    5576
CTETRA     15822       1    3056    2396    2397    2992
CTETRA     15823       1    2243    5530    5507    5506
CTETRA     15824       1     597    5571    5594    5595
CTETRA     15825       1    2243    5552    5529    5528
CTETRA     15826       1    2367    3334    3341    3335
CTETRA     15827       1     352     830    2761    2022
CTETRA     15828       1    1624    1625    5379    5377
CTETRA     15829       1    1373    2099    2955    2618
CTETRA     15830       1    3056    2972    2397    1177
CTETRA     15831       1    3056    2992    2397    2972
CTETRA     15832       1     992     439    1479    2752
CTETRA     15833       1    2745    3324    3327    3326
CTETRA     15834       1     131    2611     318    2994
CTETRA     15835       1     206    5423    5446    5447
CTETRA     15836       1    1303    2056     656    1267
CTETRA     15837       1    1746    4000    1747    3995
CTETRA     15838       1      14    1856      17     201
CTETRA     15839       1    2485    1002    5302    5303
CTETRA     15840       1    1011    2751    1878     761
CTETRA     15841       1    1011    2752     992    2257
CTETRA     15842       1     990    1281    2113    2462
CTETRA     15843       1    1000    1775     957     958
CTETRA     15844       1     200     196     198    1995
CTETRA     15845       1    4134    1486    4153    4133
CTETRA     15846       1    1779    5490    5489    5513
CTETRA     15847       1    2195    5466    5465    5489
CTETRA     15848       1    2445    1481    5478    5455
CTETRA     15849       1     958     195    2108    2800
CTETRA     15850       1     195    2963    2162    2635
CTETRA     15851       1     195    2800    2635    2861
CTETRA     15852       1     193     195    2226    2861
CTETRA     15853       1     194    2086    2162    2156
CTETRA     15854       1     952    1953     788    1540
CTETRA     15855       1    2195    5441    5464    5465
CTETRA     15856       1    1468      19    1469     622
CTETRA     15857       1    2499    3322    3331    3328
CTETRA     15858       1    2651    5082    5086    5088
CTETRA     15859       1    1008     250    1844    1209
CTETRA     15860       1    2202    4893    4472    4892
CTETRA     15861       1    1510    1514    3117    4056
CTETRA     15862       1    2003    4891    4950    4892
CTETRA     15863       1    1845    1209     250    2416
CTETRA     15864       1    1510    3117    1514    2645
CTETRA     15865       1    1510    4051    1514    4056
CTETRA     15866       1    2960    5481    5505    5482
CTETRA     15867       1    5523     598    1482    5524
CTETRA     15868       1     993     264    2131     263
CTETRA     15869       1     183      32     594    1878
CTETRA     15870       1    2093    2099    1488    1490
CTETRA     15871       1    2229    2862    2349    5902
CTETRA     15872       1     281    1773    1147     280
CTETRA     15873       1     259    5904    1848    5527
CTETRA     15874       1    1513    1515    1534    4130
CTETRA     15875       1    1848     500    5550    5573
CTETRA     15876       1    2198    3974    3975    3973
CTETRA     15877       1    2862    5481     259    2960
CTETRA     15878       1     499    5576    5552    5575
CTETRA     15879       1    1926    5586    1356    1931
CTETRA     15880       1    2862    1848    2100    2139
CTETRA     15881       1     551    5493    5470    5469
CTETRA     15882       1    1494    5469    5446    5445
CTETRA     15883       1    1401    1397    2088     605
CTETRA     15884       1     898     893    2028    2037
CTETRA     15885       1    1061     535     903     901
CTETRA     15886       1    2838    3962    3940    3939
CTETRA     15887       1    1510    1492    3122    3120
CTETRA     15888       1    5573     500    5550    5574
CTETRA     15889       1     152    2082     476     626
CTETRA     15890       1    2213     484    2760     483
CTETRA     15891       1     552    1467    5495    5494
CTETRA     15892       1    1061     475    1059     909
CTETRA     15893       1    2686    2997    4606    4605
CTETRA     15894       1    1061    1060    1059    2849
CTETRA     15895       1    1795    5711    5598    5710
CTETRA     15896       1    1357    5719    5720    5607
CTETRA     15897       1    1849    2072    1438    1437
CTETRA     15898       1    2949    5051    2971    4999
CTETRA     15899       1    2949    2971    1399    2858
CTETRA     15900       1    5548     597     598    5549
CTETRA     15901       1    2949    4999    2971    2858
CTETRA     15902       1    1513    1510    1486    4133
CTETRA     15903       1    2142    5495    5518    5519
CTETRA     15904       1    5495    1467    2142    5494
CTETRA     15905       1    2485    5302     653    5837
CTETRA     15906       1    2069    2194    3201    2070
CTETRA     15907       1    1445    2362    1409    1406
CTETRA     15908       1    3074    3308    3307    3338
CTETRA     15909       1     118      82    1640     119
CTETRA     15910       1    5494    1467    2142    5517
CTETRA     15911       1    1847    5594    5618    5595
CTETRA     15912       1    1409    1412    1304    1410
CTETRA     15913       1     421     427     429     250
CTETRA     15914       1     782     786     251     788
CTETRA     15915       1    5540    2043    5541    5564
CTETRA     15916       1    1513    1510    2645    1492
CTETRA     15917       1    1510    3121    4154    4132
CTETRA     15918       1     263    1052     993    2132
CTETRA     15919       1    5524     598    1482    5501
CTETRA     15920       1     264    1411    5278    1412
CTETRA     15921       1    1408    1304    1409     951
CTETRA     15922       1     948    1496    1495    1564
CTETRA     15923       1     262     947     951    1304
CTETRA     15924       1     795    1409     258     951
CTETRA     15925       1    3056    1177    1883    1077
CTETRA     15926       1     596    5546    5569    5570
CTETRA     15927       1     350    2750    1082    2021
CTETRA     15928       1    2586    1735    1763    1736
CTETRA     15929       1    2196    5558    5534    5557
CTETRA     15930       1     229    1899     254     963
CTETRA     15931       1    2618    5484    5508    5485
CTETRA     15932       1    2618    5531    5508    5507
CTETRA     15933       1    5434    5457    5433    1383
CTETRA     15934       1     948     430    1497    1495
CTETRA     15935       1    2096    2199    1779    2955
CTETRA     15936       1    2485     653    4446    5837
CTETRA     15937       1    1374    5460    5484    5461
CTETRA     15938       1    1735    2765    1738    1737
CTETRA     15939       1    1736    1900    1898    2587
CTETRA     15940       1     223     218     221     217
CTETRA     15941       1     218    1867    1502     219
CTETRA     15942       1     504    1664    2832     833
CTETRA     15943       1     949    1595    1496    5366
CTETRA     15944       1    3813    2463    2460    5724
CTETRA     15945       1     504     482    3015     489
CTETRA     15946       1    2460    5723    3799    3800
CTETRA     15947       1    2160    4971    4993    4972
CTETRA     15948       1    1808    2944    3021    2544
CTETRA     15949       1     391    1984    1954    1538
CTETRA     15950       1    3074    3308    3312    3307
CTETRA     15951       1    1199    1198    2847    1150
CTETRA     15952       1    5514    1779    5490    5491
CTETRA     15953       1     242    2899    3823    3824
CTETRA     15954       1     489    2023    2831    3015
CTETRA     15955       1     489    1343     482    1169
CTETRA     15956       1    1909    1903    2525    2506
CTETRA     15957       1     204    3345    2737    3339
CTETRA     15958       1    1494    5470    5447    5446
CTETRA     15959       1    1368    5462    5439    5438
CTETRA     15960       1     496    2023    1909     489
CTETRA     15961       1    1909     489    2023    2831
CTETRA     15962       1    2537    3177    3173    3175
CTETRA     15963       1     487     838     269    1694
CTETRA     15964       1     630    1671    1860    1677
CTETRA     15965       1    2707    4455    4454    4875
CTETRA     15966       1    5509    5532    2618    2955
CTETRA     15967       1     596    5570    5571    5547
CTETRA     15968       1     410    5186    2378    5187
CTETRA     15969       1    1585    1496    1549    4257
CTETRA     15970       1    5551     500    5574    5550
CTETRA     15971       1    1960    2227    5213    5331
CTETRA     15972       1    1681    2866    5245    5212
CTETRA     15973       1    1681    2866    1675    5245
CTETRA     15974       1    1677    1675    2248    1958
CTETRA     15975       1    1670    1677    1675    2248
CTETRA     15976       1    1496    1564    4255    4252
CTETRA     15977       1     597    5595    5572    5571
CTETRA     15978       1    1797    5712    1210    1796
CTETRA     15979       1    1585    2533    1576    5383
CTETRA     15980       1    1681    2866    2227    1676
CTETRA     15981       1    1662    1664    1872    1665
CTETRA     15982       1    1664    2830    2023    2832
CTETRA     15983       1    2349    5902    5481    5901
CTETRA     15984       1     259    5481    5504    2960
CTETRA     15985       1    1480    5455    5454    5478
CTETRA     15986       1     598    5502    5501    5525
CTETRA     15987       1     840    1872    2292     839
CTETRA     15988       1     683     650    3621     667
CTETRA     15989       1     486     834    1664     833
CTETRA     15990       1    2393    5900    5435    5899
CTETRA     15991       1     573    1020    1031    1661
CTETRA     15992       1    1568    1569    1746    1745
CTETRA     15993       1    2393    5435    5900    5458
CTETRA     15994       1     270    1568    1591    1746
CTETRA     15995       1    2023     504    1664    2832
CTETRA     15996       1    1375    5416    3327    5415
CTETRA     15997       1    5412    3312    5685    3314
CTETRA     15998       1    1487     204    1491    2366
CTETRA     15999       1    1383    2622    3309    3074
CTETRA     16000       1    1357    5719    5606    5718
CTETRA     16001       1    5365    4256    1595    5387
CTETRA     16002       1     410    2713    5184    5176
CTETRA     16003       1    2734    2735    3020    5178
CTETRA     16004       1     353     351    2543    5347
CTETRA     16005       1     826    1447    2397    2919
CTETRA     16006       1    1920    5560    5559    5583
CTETRA     16007       1    2515    4969    4970    4985
CTETRA     16008       1    1926    5539    5563    5540
CTETRA     16009       1    1525    5724    5725    5612
CTETRA     16010       1    1496    1549    4257    4255
CTETRA     16011       1    2950    5198    1809     524
CTETRA     16012       1    2714     409     109     102
CTETRA     16013       1    1780    4145    4141    4144
CTETRA     16014       1    2392    5484    5483    5507
CTETRA     16015       1     467     465     474     464
CTETRA     16016       1    2723      97      98    1452
CTETRA     16017       1    1452     372      93    1451
CTETRA     16018       1    2791    2439    2835    2437
CTETRA     16019       1     714      94    1669     720
CTETRA     16020       1    2735    5187    2378    5182
CTETRA     16021       1    1376    2366    1489    2365
CTETRA     16022       1     879      35     878    2547
CTETRA     16023       1    5440    5464    2195    5441
CTETRA     16024       1    1788    3330    3321    3328
CTETRA     16025       1    2080     997    3006    3008
CTETRA     16026       1     878      35      34    2547
CTETRA     16027       1    2556    2379    2550    2789
CTETRA     16028       1    1142    1143    1166     578
CTETRA     16029       1     548     546    3007     880
CTETRA     16030       1    2947    2386    2630    2736
CTETRA     16031       1    2197    5555    5532    5531
CTETRA     16032       1    2232    2243     499    5553
CTETRA     16033       1    1368    5463    5440    5439
CTETRA     16034       1     720     721     716     713
CTETRA     16035       1     626    3045    5073     908
CTETRA     16036       1    1180    3542    3023    3552
CTETRA     16037       1    1072    2557     297     309
CTETRA     16038       1    1700    1079    1703    1702
CTETRA     16039       1    1367    3325    5417    5418
CTETRA     16040       1    1370    1386    1963    1975
CTETRA     16041       1    1118    1276     526    2710
CTETRA     16042       1     887    1451    2083    2684
CTETRA     16043       1     888    2935    1810    1806
CTETRA     16044       1    2456    5108    5100    5107
CTETRA     16045       1     889    1810    1387    1391
CTETRA     16046       1    1067    2720    3220    2879
CTETRA     16047       1    2570    2308    3184    2821
CTETRA     16048       1    2308    2144    2821    2570
CTETRA     16049       1    2821    3183    2147    3184
CTETRA     16050       1    1020    2571    2821    2570
CTETRA     16051       1     946    1913     944     935
CTETRA     16052       1    2105    1438    1436    2094
CTETRA     16053       1    2699    2488    3857    3817
CTETRA     16054       1    2365    3336    2366    3337
CTETRA     16055       1    1263    1261    2855    1267
CTETRA     16056       1    1436     899     958    2108
CTETRA     16057       1     475     478     909     908
CTETRA     16058       1    5476    1483    1365    5475
CTETRA     16059       1    5047    2471    1060    2923
CTETRA     16060       1    2471    1060    2923    1059
CTETRA     16061       1    2508    3335    3342    3310
CTETRA     16062       1     900    2094    2467    2103
CTETRA     16063       1    5430    5454    1483    2509
CTETRA     16064       1    1850    2095    4997    5048
CTETRA     16065       1     931    1705    1706    2833
CTETRA     16066       1     900     478     477    2467
CTETRA     16067       1    2232    5578    5601    5602
CTETRA     16068       1     596    5570    5547    5546
CTETRA     16069       1    2048    2049    2336    2338
CTETRA     16070       1    1793    5711    1795    1797
CTETRA     16071       1    2051    2481    2480    2233
CTETRA     16072       1    2348    2268    2255    2393
CTETRA     16073       1    2048    2047    2338    2363
CTETRA     16074       1    1858    1937    2204    2111
CTETRA     16075       1    2047    2480    2363    2233
CTETRA     16076       1    2047    2480    2610    2338
CTETRA     16077       1    2051    2317    2481    2233
CTETRA     16078       1    4416    3042     140    2809
CTETRA     16079       1    3129    3130    3114    1813
CTETRA     16080       1     931    2447    1508     532
CTETRA     16081       1    1775     485    2213     483
CTETRA     16082       1     895     901    1000     402
CTETRA     16083       1    2034    2191     485    2000
CTETRA     16084       1    1085    1086    1084    2819
CTETRA     16085       1    2397    2992    2396    2919
CTETRA     16086       1     285     291    1941     295
CTETRA     16087       1    2431    5907    5913    5708
CTETRA     16088       1    2431    5596    5907    5708
CTETRA     16089       1    2130    1024    2128    1023
CTETRA     16090       1    1848    5906    5905    5572
CTETRA     16091       1    2377    1589    3073     188
CTETRA     16092       1    1589    2841    2377    3073
CTETRA     16093       1    1587    1652    1430    2856
CTETRA     16094       1    1587    1653    1429    1430
CTETRA     16095       1    4292    4337    1517    4338
CTETRA     16096       1    1847    5618    5907    5595
CTETRA     16097       1     569     567    2665     580
CTETRA     16098       1    1811     874    2182    1798
CTETRA     16099       1    1795    5598    5711    5599
CTETRA     16100       1    1766    1813    1783    1769
CTETRA     16101       1    1357    5583    5606    5607
CTETRA     16102       1    2588    5599    5576    5575
CTETRA     16103       1    2238    5609    5722    5610
CTETRA     16104       1    1525    5614    5613    5726
CTETRA     16105       1    2144     570    1583    1823
CTETRA     16106       1    1781    5539    5538    5562
CTETRA     16107       1    1362    5604    5716    5717
CTETRA     16108       1    1024     567    2130    2665
CTETRA     16109       1    1801    1576    1549    1550
CTETRA     16110       1    1763    2940    1739    2585
CTETRA     16111       1     206    5423    5424    3345
CTETRA     16112       1    2035    2781    2970    3288
CTETRA     16113       1    1787    3320    3345    3339
CTETRA     16114       1    2820    1693    5329    2543
CTETRA     16115       1    5592     315    5593     316
CTETRA     16116       1    2045    1376    1493    2195
CTETRA     16117       1    1377    5463    5462    5486
CTETRA     16118       1     433    1940    1527    1528
CTETRA     16119       1    4791    2227    4790    1960
CTETRA     16120       1    1147    5730    1146    5913
CTETRA     16121       1     989     988     128    2259
CTETRA     16122       1    2753     992    1479    2752
CTETRA     16123       1    2737    3345    5425    3344
CTETRA     16124       1     552    1467    5494    5493
CTETRA     16125       1    1772    1148    5729    1760
CTETRA     16126       1    1824    1924    2589    2347
CTETRA     16127       1    2588    5598    5575    5574
CTETRA     16128       1    1259    1862    2078    2246
CTETRA     16129       1    1257    2228     864     630
CTETRA     16130       1    1824     638     639    2590
CTETRA     16131       1    1677    1678    1681    1959
CTETRA     16132       1     630    1959    2228    1678
CTETRA     16133       1    1826    1924    1960    2820
CTETRA     16134       1    1501    2590    4783     863
CTETRA     16135       1    2347     863    2590     639
CTETRA     16136       1     630     864    1257     639
CTETRA     16137       1     630    1959    1257    2228
CTETRA     16138       1    1362    5604    5717    5605
CTETRA     16139       1     159     160     162    2883
CTETRA     16140       1    1766    1780    3129    1813
CTETRA     16141       1    2837    1376    1377    2195
CTETRA     16142       1    1940    5617    5730    5618
CTETRA     16143       1     316    5591    5614    5615
CTETRA     16144       1    2044    5613    5589    5612
CTETRA     16145       1    2044    5612    5589    5588
CTETRA     16146       1     596     315     597    5570
CTETRA     16147       1    1766    1818    1484    2542
CTETRA     16148       1     312    1089    2091    2092
CTETRA     16149       1    1383    5900    5899    5434
CTETRA     16150       1     615    2142     904    5519
CTETRA     16151       1     615     616    1466     552
CTETRA     16152       1    1377    1373    2955    2618
CTETRA     16153       1    1620     290     294     288
CTETRA     16154       1     290    1794    1620    2588
CTETRA     16155       1    2139     500    2100     499
CTETRA     16156       1    5412    5685    3313    5912
CTETRA     16157       1     499    2588    2140    1922
CTETRA     16158       1    1383    5412    3313    5899
CTETRA     16159       1    2393    5436    5412    5435
CTETRA     16160       1    2196    2197    2199    1785
CTETRA     16161       1    1931    5588    5587    5611
CTETRA     16162       1    1785    2196    2141    1920
CTETRA     16163       1    1014    1902    1016    2134
CTETRA     16164       1    2290    2832     833    1565
CTETRA     16165       1    2023    3015    2832    2831
CTETRA     16166       1    1204    1205    1206    2888
CTETRA     16167       1    1575    2052    1573    1204
CTETRA     16168       1    5577    2232    5600    5576
CTETRA     16169       1    2052     162    3009    2719
CTETRA     16170       1     479     481     487     504
CTETRA     16171       1    1584    1035    2134     498
CTETRA     16172       1    1573    1343    1574    2717
CTETRA     16173       1    1766    1780    1769    4146
CTETRA     16174       1    2232    5600    5576    1794
CTETRA     16175       1    3257    3251    3247    1704
CTETRA     16176       1    5695    1787    3330    3320
CTETRA     16177       1     157     154    2052     162
CTETRA     16178       1    1367    5419    5418    5442
CTETRA     16179       1     159    3280    2005    2036
CTETRA     16180       1    1367    5418    5441    5442
CTETRA     16181       1    1561     814    1790    2070
CTETRA     16182       1    2745    2499    2365    3323
CTETRA     16183       1    1367    5417    5441    5418
CTETRA     16184       1     150     159     151     158
CTETRA     16185       1    5419    5418    5691    3332
CTETRA     16186       1    1721    1155    3078    3037
CTETRA     16187       1    1919    2414    2483    2931
CTETRA     16188       1    1368    5438    5461    5462
CTETRA     16189       1    1923    5581    5604    5605
CTETRA     16190       1    1931    5586    5610    5587
CTETRA     16191       1     777    1918     737     691
CTETRA     16192       1     175     176     177     691
CTETRA     16193       1    1544    2806    2730     959
CTETRA     16194       1     738    1971    3038    2675
CTETRA     16195       1     738    2473    1971    2675
CTETRA     16196       1     151    2781    2573    2970
CTETRA     16197       1    1811     293     539     286
CTETRA     16198       1    1793     539     286    1798
CTETRA     16199       1    2036    3279     158     159
CTETRA     16200       1     206     205     203     552
CTETRA     16201       1     206    5448     203    5425
CTETRA     16202       1    1780    1769    4146    4144
CTETRA     16203       1     906    3992    3991    3997
CTETRA     16204       1    1466     552     550    1467
CTETRA     16205       1    2255    3074    2365    2367
CTETRA     16206       1    5450    5427    5451    1364
CTETRA     16207       1    2955    2197    2618    2099
CTETRA     16208       1    1377    5487    5510    2955
CTETRA     16209       1    2498     163    1364     203
CTETRA     16210       1    1037    2720    1063    4005
CTETRA     16211       1    1483    5429    5430    3348
CTETRA     16212       1    2229    5902    2349    5480
CTETRA     16213       1    2569    2570    2568    2571
CTETRA     16214       1    2879    3225    3219    4005
CTETRA     16215       1    3226    3225    3219    2879
CTETRA     16216       1    2569     570    1580    1583
CTETRA     16217       1    5433    3316    5706    3315
CTETRA     16218       1    2622    3316    3309    3310
CTETRA     16219       1    2720    2879    3226    3220
CTETRA     16220       1    1559    2069    2194    2074
CTETRA     16221       1    1016    1041    1040    2823
CTETRA     16222       1    2720    1067    1066    2879
CTETRA     16223       1     605     604     191     189
CTETRA     16224       1     402    2213    2191     397
CTETRA     16225       1     150     158     153     160
CTETRA     16226       1    2567    1075    1065    4034
CTETRA     16227       1     956    2904    2192     943
CTETRA     16228       1    1218    4581    4489    4558
CTETRA     16229       1    2573     151     152     898
CTETRA     16230       1    1829    2582    1830    4204
CTETRA     16231       1     830     829    2590     638
CTETRA     16232       1     957    2932     982     483
CTETRA     16233       1    2033    2034    2840     522
CTETRA     16234       1     160    2040    2883    3012
CTETRA     16235       1    2993    2650    2845    4468
CTETRA     16236       1     162    2040    2868    3066
CTETRA     16237       1     160    1440    2868    2040
CTETRA     16238       1    1704    2883     162    1206
CTETRA     16239       1     161    1707    1706    1705
CTETRA     16240       1     192     193    1886    1849
CTETRA     16241       1    3211    3212    1877    1657
CTETRA     16242       1    1795    5598    5597    5710
CTETRA     16243       1    2146    2307    2308    2147
CTETRA     16244       1     200     957    1995    1994
CTETRA     16245       1    1075     567    4032    2130
CTETRA     16246       1    1886    1439     193    2861
CTETRA     16247       1    1849    1438    1436    1437
CTETRA     16248       1    1374    5436    5459    5460
CTETRA     16249       1     206     552    5447    1494
CTETRA     16250       1     398    2008     408    2460
CTETRA     16251       1    5584    5583    1356    5607
CTETRA     16252       1    1719    4040    2825    1582
CTETRA     16253       1    2135    5516    5539    5540
CTETRA     16254       1     211    5147    3209    5665
CTETRA     16255       1    1920    5582    5558    5581
CTETRA     16256       1    1886    2072    1849    1437
CTETRA     16257       1     198    1995    2025    2613
CTETRA     16258       1    1356    5609    5586    5585
CTETRA     16259       1    2130    1580     570    2854
CTETRA     16260       1     262    1412    1409    1411
CTETRA     16261       1    1409    1410    1304    1305
CTETRA     16262       1    1669    1115     844    2432
CTETRA     16263       1      98    2438      93    2791
CTETRA     16264       1    2545    1157    2361    1115
CTETRA     16265       1    1657     211    1658    1656
CTETRA     16266       1    1658    1657    2539    1877
CTETRA     16267       1     314    5567    5590    5591
CTETRA     16268       1    1764    3950    3949    3964
CTETRA     16269       1    1157     914    1114     915
CTETRA     16270       1    1157    1114    2361    1115
CTETRA     16271       1    1157     915    2432    1158
CTETRA     16272       1    1940    5730    5617    5729
CTETRA     16273       1    2572    2569    2570    1720
CTETRA     16274       1    1794    5712    5600    5599
CTETRA     16275       1     316    5615    5727    5728
CTETRA     16276       1    5913    1940    5730    5618
CTETRA     16277       1     314    5591     315    5568
CTETRA     16278       1    1931    1926    5586    5563
CTETRA     16279       1     211    5148    5147    5665
CTETRA     16280       1    1772     433    1528    1940
CTETRA     16281       1     596    1089    1087     598
CTETRA     16282       1    1719    1582    4041    4040
CTETRA     16283       1     732     723    2689    3096
CTETRA     16284       1     147    2486    2964    1977
CTETRA     16285       1    1976    3060    1980    1978
CTETRA     16286       1     736    2473    1326    1325
CTETRA     16287       1    1777    5466    5490    5467
CTETRA     16288       1      75     512     508     510
CTETRA     16289       1     378     409     381    1435
CTETRA     16290       1    1374    5437    5461    5438
CTETRA     16291       1    3331    2499    2745    3323
CTETRA     16292       1    1375    5413    5437    5414
CTETRA     16293       1    1924    4787    4789    4786
CTETRA     16294       1    1777    5490    5466    5489
CTETRA     16295       1    3325    5690    3326    2745
CTETRA     16296       1     371    2129    2870    2128
CTETRA     16297       1     211    3209    3087    1657
CTETRA     16298       1    1023    2129    2128    2854
CTETRA     16299       1    1590    1382    1747    2780
CTETRA     16300       1    1016    1902    2720    2823
CTETRA     16301       1    1580    2854    4036    4046
CTETRA     16302       1     287    5714    5715    5602
CTETRA     16303       1     435     436     437    2046
CTETRA     16304       1     742     660     170    1890
CTETRA     16305       1    1793    5713    5714    5601
CTETRA     16306       1    5429    5430    3348    5702
CTETRA     16307       1     742    1893    1890     390
CTETRA     16308       1    2379    4519    2789    4518
CTETRA     16309       1    1483    5430    5429    5453
CTETRA     16310       1    2379    4113    2790    4114
CTETRA     16311       1    1616    2790    2731    2732
CTETRA     16312       1    1088    5545    5568    5569
CTETRA     16313       1    2731    4112    2732    4113
CTETRA     16314       1     316    5615    5592    5591
CTETRA     16315       1    2731    5794    4508    4096
CTETRA     16316       1    1338    5749    3717    4209
CTETRA     16317       1    1940    5616    5729    5617
CTETRA     16318       1     316    5616    5592    5615
CTETRA     16319       1    3076    3717    5748    4209
CTETRA     16320       1     211    3087    5144    1874
CTETRA     16321       1    3076    1338    1283    3720
CTETRA     16322       1    5611    5724    1526    5612
CTETRA     16323       1    1338    1283    3720    3680
CTETRA     16324       1    1338    3717    5749    3679
CTETRA     16325       1    1338    1339    1301    4210
CTETRA     16326       1    1338    1284    3680    3679
CTETRA     16327       1    1388    5299    5865    3422
CTETRA     16328       1    1388    5299    5839    5865
CTETRA     16329       1    1388    2479    5838    2485
CTETRA     16330       1    1945    1388    2479    2810
CTETRA     16331       1    5422    5695    3330    5694
CTETRA     16332       1    1388    2479    5839    5838
CTETRA     16333       1    1787    3330    3320    3321
CTETRA     16334       1    1788    1787    5422    5445
CTETRA     16335       1    5423    5424    3345    5696
CTETRA     16336       1    1487    1788     204    2366
CTETRA     16337       1    1945    1946    1388    2810
CTETRA     16338       1    2266    2270    5234    3085
CTETRA     16339       1    2918    3591    2991    5206
CTETRA     16340       1     211    1874    5144    5145
CTETRA     16341       1    1940    5616    5728    5729
CTETRA     16342       1    1920    5580    5581    5557
CTETRA     16343       1    2199    5511    5535    5512
CTETRA     16344       1    3591    2266    2918    1389
CTETRA     16345       1    1592    2808    3414    3415
CTETRA     16346       1    2266    3585    1389    3591
CTETRA     16347       1    2853    3137    2995    3108
CTETRA     16348       1    4474     368    4679    4678
CTETRA     16349       1    5721    2237    1358    2238
CTETRA     16350       1    3758    1244    3756    3757
CTETRA     16351       1    5296     664    1914     842
CTETRA     16352       1    1244    3756    3757    1599
CTETRA     16353       1    2853    3108    5647    3139
CTETRA     16354       1     315    5569    5593    5570
CTETRA     16355       1    2853    2369    2995    1454
CTETRA     16356       1    4059    2369    4057    4055
CTETRA     16357       1    1599    2872    3755    3757
CTETRA     16358       1    2369    4057    4055    2853
CTETRA     16359       1    2853    2369    3108    2995
CTETRA     16360       1    2853    3108    4057    5647
CTETRA     16361       1    2196    5557    5534    5533
CTETRA     16362       1    2944    3021    5194    5192
CTETRA     16363       1    3020    2313    3149    2310
CTETRA     16364       1    1808    2944    1814    1807
CTETRA     16365       1    2944    5673    5192    5193
CTETRA     16366       1    2944    3021    2544    5194
CTETRA     16367       1    3020    3150    2944    3149
CTETRA     16368       1    1808    2310    2944    1807
CTETRA     16369       1    2944    2544    5191    5193
CTETRA     16370       1    2737    3344    5425    3343
CTETRA     16371       1    2944    3150    5673    3156
CTETRA     16372       1    2737    3340    3344    3349
CTETRA     16373       1    5603     287    5602    5579
CTETRA     16374       1    1734    5821    4361    4855
CTETRA     16375       1    1583    1582    1719    2825
CTETRA     16376       1    1734    2205    1709    4372
CTETRA     16377       1    1931    5588    5564    5587
CTETRA     16378       1    1362    5605    5718    5606
CTETRA     16379       1    4844    2205    1854    1734
CTETRA     16380       1    1734    4361    5821    4366
CTETRA     16381       1    1734    1709    4367    4372
CTETRA     16382       1    2319    4338    2320    4339
CTETRA     16383       1    2319    2304    3378    2182
CTETRA     16384       1    2824    2825    4040    4039
CTETRA     16385       1    4338    2303    4330    2319
CTETRA     16386       1    2319    2318    4339    2320
CTETRA     16387       1     873    1518    2182    2303
CTETRA     16388       1     493    1208    3085    1441
CTETRA     16389       1    1298    1832    1334    1599
CTETRA     16390       1    3314    5412    2393    5413
CTETRA     16391       1    5413    5412    5685    3314
CTETRA     16392       1    5414    5413    5686    3314
CTETRA     16393       1    5437    2393    5436    5413
CTETRA     16394       1     492    5235    5236    5227
CTETRA     16395       1    1599    5751    3743    4186
CTETRA     16396       1    1923    5581    5580    5604
CTETRA     16397       1    3085    5235    5236     492
CTETRA     16398       1    2266    5234    2270    3593
CTETRA     16399       1    2270    3593    5853    3594
CTETRA     16400       1     287    5603    5715    5716
CTETRA     16401       1     493     492    3085    1208
CTETRA     16402       1    2275     492     491    2078
CTETRA     16403       1    2836    2275     492    5227
CTETRA     16404       1    1376    2745    2499    2365
CTETRA     16405       1    5421    1788    5444    5420
CTETRA     16406       1    2045    5443    5419    5442
CTETRA     16407       1    1442    1389    2266    1390
CTETRA     16408       1    3586    2270     493    3594
CTETRA     16409       1    5420    5419    5692    3329
CTETRA     16410       1    2499    5419    3332    5418
CTETRA     16411       1    3586    1390    2298     491
CTETRA     16412       1     493    3594     491    3586
CTETRA     16413       1    1057    4030    1045    4025
CTETRA     16414       1    1832    1599    1244    2872
CTETRA     16415       1    2776    5249    4767    5248
CTETRA     16416       1    1835    4767    4765    5248
CTETRA     16417       1    2570    2572    3171    3185
CTETRA     16418       1    1670    1675    2863    2248
CTETRA     16419       1    1376    2255    2365    1489
CTETRA     16420       1    2637    1835    1048    2776
CTETRA     16421       1    2566    2567    4038    1719
CTETRA     16422       1    2342    5455    5431    5454
CTETRA     16423       1    1383    3318    3316    3315
CTETRA     16424       1    2776    4763    2865    4760
CTETRA     16425       1    1854    4844    4907    4914
CTETRA     16426       1    1687    4844    4907    1854
CTETRA     16427       1    2205    4371    5822    4914
CTETRA     16428       1    1599    3755    1334    3743
CTETRA     16429       1    2509    5431    5703    5430
CTETRA     16430       1    2509    5431    5430    5454
CTETRA     16431       1    1709    1869    2205    1854
CTETRA     16432       1    1599    3743    5751    3756
CTETRA     16433       1    1243    1229    4278    4283
CTETRA     16434       1    1930    2238    5611    5610
CTETRA     16435       1    5906    1847    2140    5907
CTETRA     16436       1    5443    5442    2045    5466
CTETRA     16437       1    2205    4366    5822    4371
CTETRA     16438       1    2821    2377    3179    3180
CTETRA     16439       1    1779    5514    5513    5537
CTETRA     16440       1    1869    4372    2205    4373
CTETRA     16441       1    1709    1734    1687    1854
CTETRA     16442       1    1090    5590    5566    5589
CTETRA     16443       1     316    5616    5615    5728
CTETRA     16444       1     314    5590    5613    5614
CTETRA     16445       1    1734    2205    4372    4366
CTETRA     16446       1    2372    4465    2478    4466
CTETRA     16447       1    4904    4919    4328    1668
CTETRA     16448       1    1849    2094    2491    2095
CTETRA     16449       1    2971    4303    2071    4302
CTETRA     16450       1    1356    5584    5607    5608
CTETRA     16451       1    1356    5585    5584    5608
CTETRA     16452       1    1668    2971    1399    2072
CTETRA     16453       1    2971    4320    2072    1668
CTETRA     16454       1    1847    5906    5595    5907
CTETRA     16455       1    2821    2571    3180    3170
CTETRA     16456       1    2949    2971    2071    2072
CTETRA     16457       1    5066    2071    4319    2491
CTETRA     16458       1    5051    5066    5050    2949
CTETRA     16459       1    2254    2342    2445    2622
CTETRA     16460       1    2971    2071    2072    4302
CTETRA     16461       1    2960    5504    5505    5481
CTETRA     16462       1    5502    2229    5503    5526
CTETRA     16463       1    2071    5679    1438    4318
CTETRA     16464       1    1482     312    1089     311
CTETRA     16465       1    1849    2491    2094    1438
CTETRA     16466       1    2071    2072    4302    4318
CTETRA     16467       1    1967    2770    5315    2771
CTETRA     16468       1    2342    5433    3317    5432
CTETRA     16469       1    1383    2622    2255    2348
CTETRA     16470       1    1243    3758    4282    5753
CTETRA     16471       1    1370    2771    1967    1975
CTETRA     16472       1    1967    1386    4818    4819
CTETRA     16473       1    1370    1967    2771    2770
CTETRA     16474       1    1243    1253    4278    1229
CTETRA     16475       1    1967    4819    1371    1386
CTETRA     16476       1    2319    3378    2304    3379
CTETRA     16477       1    4331    2318    3368    4332
CTETRA     16478       1    2318    2394    4340    2230
CTETRA     16479       1    4333    2318    4340    4332
CTETRA     16480       1    1243    3758    5753    3484
CTETRA     16481       1    1374    2392    5483    5482
CTETRA     16482       1    2567    1075    4035    1580
CTETRA     16483       1    2319    4339    2318    4331
CTETRA     16484       1    1374    5461    5437    5460
CTETRA     16485       1     611    1907    2231    2085
CTETRA     16486       1    2745    1752    3324    2365
CTETRA     16487       1    2654    3243    3963    3269
CTETRA     16488       1    2654    1999    2838    3962
CTETRA     16489       1    5422    1788    5421    3330
CTETRA     16490       1    2654    3952     932    1999
CTETRA     16491       1    2654    3960     932    3952
CTETRA     16492       1    1383    3308    3318    3312
CTETRA     16493       1     931    2654    2004     932
CTETRA     16494       1    5458    2348    5901    5900
CTETRA     16495       1    5433    3317    5432    5705
CTETRA     16496       1    5432    5431    5704    3317
CTETRA     16497       1    1813    1814    5205    3154
CTETRA     16498       1    1813    1814    3154    3162
CTETRA     16499       1    3115    3154    1813    5676
CTETRA     16500       1    1766    3113    1813    3129
CTETRA     16501       1    5473    1465    5497    5496
CTETRA     16502       1    2950    1813    1783    1814
CTETRA     16503       1    1364    5450    5473    5474
CTETRA     16504       1    2480    4434    4433    5813
CTETRA     16505       1    2338    4432    4433    2480
CTETRA     16506       1    1090    5567    5566    5590
CTETRA     16507       1    2852    4934    4933    4978
CTETRA     16508       1    1243    1244    3758    2873
CTETRA     16509       1    4436    2338    4432    4433
CTETRA     16510       1    2480    4847    2233    4854
CTETRA     16511       1    1926    5539    5562    5563
CTETRA     16512       1    5611    5723    1526    5724
CTETRA     16513       1    2480    4431    2233    2481
CTETRA     16514       1    1090    5567    5568    5544
CTETRA     16515       1    4432    4434    2480    2481
CTETRA     16516       1    2569    1064    1065     574
CTETRA     16517       1    2106    3496    2951    3512
CTETRA     16518       1    5426    5425    5698    3343
CTETRA     16519       1    5426    5699    5427    3350
CTETRA     16520       1     203     616    1363    1364
CTETRA     16521       1     948     432    2101    1497
CTETRA     16522       1    2106    1896     231    1738
CTETRA     16523       1    2951    2584    5394    2583
CTETRA     16524       1    2445    5433    5456    5457
CTETRA     16525       1    5434    5706    5707    3315
CTETRA     16526       1    1736    1896    2106    1738
CTETRA     16527       1    5085    5052     375    5095
CTETRA     16528       1    2327    3529    2107    1547
CTETRA     16529       1    2327    3529    1547    3530
CTETRA     16530       1    2148    2137    4324    4323
CTETRA     16531       1    1720    3133    2570    3171
CTETRA     16532       1    1793    5602    5601    5714
CTETRA     16533       1    4927    1679    4923    2576
CTETRA     16534       1    4927    2576    4924    2148
CTETRA     16535       1    2568    2571    3170    3132
CTETRA     16536       1    2148    4296    5826    4325
CTETRA     16537       1    1679    2148    4927    4327
CTETRA     16538       1    2148    4324    2137    4296
CTETRA     16539       1    5468    2045    5467    5444
CTETRA     16540       1    2813    2809    4409    4402
CTETRA     16541       1    4409    2813    4417    2809
CTETRA     16542       1    2499    3329    5420    3328
CTETRA     16543       1    5693    3328    3330    5421
CTETRA     16544       1    2813    1688    4863    2578
CTETRA     16545       1    2813    2578    4863    4867
CTETRA     16546       1     287    5603    5602    5715
CTETRA     16547       1    2813    4867    1188    2578
CTETRA     16548       1    5818    4403    4867    4410
CTETRA     16549       1    4403    4867    4410    2813
CTETRA     16550       1    5416    5417    3327    5689
CTETRA     16551       1    1243    3483    2873    3758
CTETRA     16552       1    2813    1688    2578    2155
CTETRA     16553       1    2813    2155    4402    4403
CTETRA     16554       1    2845    4468    2650    4467
CTETRA     16555       1    1130    1396    4242    4705
CTETRA     16556       1    4244    4265    4243    1624
CTETRA     16557       1     287    5603    5716    5604
CTETRA     16558       1    2588    5598    5574    5597
CTETRA     16559       1    1914    5295    3397    5863
CTETRA     16560       1    5574    2140    5573     500
CTETRA     16561       1    1344    3084    2876     905
CTETRA     16562       1    4842    2209    4841    1689
CTETRA     16563       1    5608    5607    1356    5720
CTETRA     16564       1    2932    3437    5721    5720
CTETRA     16565       1    1914     663    3405    2958
CTETRA     16566       1    1786    5561    5584    5585
CTETRA     16567       1    1914    2532    2958    3397
CTETRA     16568       1    1356    5585    5608    5609
CTETRA     16569       1    1356    2238    1930    5609
CTETRA     16570       1    1130    1191    1131    1337
CTETRA     16571       1    1130    2423    1191    4704
CTETRA     16572       1    5434    3319    3315    5707
CTETRA     16573       1    5434    3315    5433    5706
CTETRA     16574       1    1191    2423    4815    4704
CTETRA     16575       1    5480    5902    2349    5901
CTETRA     16576       1    1191    4815    2387    4835
CTETRA     16577       1    1383    3318    3315    3319
CTETRA     16578       1    1611    1191    1131    2423
CTETRA     16579       1    3316    1383    3315    5433
CTETRA     16580       1    1130    4242    1337    4241
CTETRA     16581       1    1337    1618    4241    4245
CTETRA     16582       1    1057    3101    1044     776
CTETRA     16583       1    5595    5906    1848    5572
CTETRA     16584       1    2140    5597    5574    5573
CTETRA     16585       1    2954    1066    4020    4018
CTETRA     16586       1    1057    1043    1045    1044
CTETRA     16587       1    2140    5573    5596    5597
CTETRA     16588       1    1043    4026    1030    4018
CTETRA     16589       1    1043    4026    1045    1030
CTETRA     16590       1    2254    2508    1363    1483
CTETRA     16591       1    2926    2162    3453    4305
CTETRA     16592       1    2232    5601    5578    5577
CTETRA     16593       1    1914    5295    5863    5296
CTETRA     16594       1    2926    2562    4305    4306
CTETRA     16595       1    2232    5577    5578    5554
CTETRA     16596       1    2926    2662    3450    3451
CTETRA     16597       1    2926    2156    3451    3453
CTETRA     16598       1    1795    5710    5597    5709
CTETRA     16599       1    2086    2662    2926    2156
CTETRA     16600       1    1388    2479    2810    3420
CTETRA     16601       1    5416    3327    5415    5688
CTETRA     16602       1    2810    2479    3425    3420
CTETRA     16603       1    1689    4857    2579    4841
CTETRA     16604       1    2745    5690    3326    3327
CTETRA     16605       1    2479    2485    4446    5838
CTETRA     16606       1     934     935    1855     936
CTETRA     16607       1    1478    1148    1760    5729
CTETRA     16608       1    1388    1002    1945    2485
CTETRA     16609       1    1088     315    5569    5568
CTETRA     16610       1    5701    3346    3348    5429
CTETRA     16611       1    1483    5428    5429    3346
CTETRA     16612       1     163    3347    5428    3346
CTETRA     16613       1    2810    1388    3420    1946
CTETRA     16614       1    1388    2485    5838    5303
CTETRA     16615       1    2334    2479    3425    2810
CTETRA     16616       1     163    3341    3349    3346
CTETRA     16617       1    5428    3347    5427    5700
CTETRA     16618       1    1483    5452    5453    5429
CTETRA     16619       1    2598    2802    3395    3386
CTETRA     16620       1    2598    4355    3367    3394
CTETRA     16621       1    1383    3319    3313    3318
CTETRA     16622       1    2598    2928     519    4391
CTETRA     16623       1    2078    1259     634    1862
CTETRA     16624       1    4356    2598     519    4391
CTETRA     16625       1    1687    1689    2209    4842
CTETRA     16626       1    1375    5415    3306    5414
CTETRA     16627       1    2598    4390    2928    4391
CTETRA     16628       1    1875      68    1911     935
CTETRA     16629       1     326    1915    1686     325
CTETRA     16630       1    2033    2838    2840    1991
CTETRA     16631       1    2033    1991     893    1992
CTETRA     16632       1    2838    1999    3940    3962
CTETRA     16633       1    2033    1991    1992    1993
CTETRA     16634       1    2662    2655    3442    3443
CTETRA     16635       1    2926    2662    4297    3450
CTETRA     16636       1    2926    2662    2089    4297
CTETRA     16637       1    1931    5587    5610    5611
CTETRA     16638       1    5586    5610    1930    1931
CTETRA     16639       1    2662    2156    3443    3451
CTETRA     16640       1    2086    2562    2926    2089
CTETRA     16641       1    2926    2156    2662    3451
CTETRA     16642       1    2229    2097    2348    2269
CTETRA     16643       1    2662    2085    2394    2655
CTETRA     16644       1    2737    3349    1491    3340
CTETRA     16645       1    5477    1482    1480    5478
CTETRA     16646       1    2366    3334    3337    3336
CTETRA     16647       1    1688    4403    4862    4396
CTETRA     16648       1    5424    5425     206    3345
CTETRA     16649       1    2375    1627    5377    5374
CTETRA     16650       1    2375    1624    1627    1191
CTETRA     16651       1    1847    5593    5616    5617
CTETRA     16652       1    1914    2532    2500    2958
CTETRA     16653       1    1914     842    2500    5294
CTETRA     16654       1    1130    2423    4704    4673
CTETRA     16655       1    1624    4265    4243    5378
CTETRA     16656       1    1337    1618    1131    4241
CTETRA     16657       1    1131    1660    4273    4240
CTETRA     16658       1    3349    3347    3350    2498
CTETRA     16659       1    1914    5294    2500    5295
CTETRA     16660       1    2508    3335    3341    3342
CTETRA     16661       1    2737     163    1491    3349
CTETRA     16662       1    1131    4240    1618    1660
CTETRA     16663       1    3074    3337    3309    3308
CTETRA     16664       1    5120    2507    5122    2717
CTETRA     16665       1    1625    1611     256    1191
CTETRA     16666       1    1191    2423    2387    4815
CTETRA     16667       1    2229    5503    5902    5480
CTETRA     16668       1    2423    2387    4815    4703
CTETRA     16669       1    1424     232     231    1425
CTETRA     16670       1    1062    4672    2423    4673
CTETRA     16671       1    2423    4672    1843    4703
CTETRA     16672       1    1066    1224    4021    4019
CTETRA     16673       1    1688    1687    4855    4856
CTETRA     16674       1    2588    5575    5598    5599
CTETRA     16675       1    1043    1044    1066    1030
CTETRA     16676       1    1064    1057    1065    1045
CTETRA     16677       1     597    5570    5593    5594
CTETRA     16678       1    1066    1224    4019    1030
CTETRA     16679       1    3166    2944    3155    3156
CTETRA     16680       1     101    2626    1809    2544
CTETRA     16681       1    1787    1788    3321     204
CTETRA     16682       1     713      94      95      93
CTETRA     16683       1    5444    5445    1788    5421
CTETRA     16684       1    1814    3161    1783    1385
CTETRA     16685       1    1814    3162    1783    3161
CTETRA     16686       1    1807    3161    3166    1814
CTETRA     16687       1    3165    1807    3161    3166
CTETRA     16688       1    2944    1814    1807    3166
CTETRA     16689       1    1805    1814    1783    1385
CTETRA     16690       1    1809    2544    5190    5191
CTETRA     16691       1    1809    2626    5200    5190
CTETRA     16692       1    2626     527     101    1809
CTETRA     16693       1    2254    2342    2508    1483
CTETRA     16694       1    1483    2508    3346    3348
CTETRA     16695       1    2342    2254    2508    2622
CTETRA     16696       1    2045    2499    1376    1367
CTETRA     16697       1     206    5425     203    2737
CTETRA     16698       1    2498    5426    3350    3343
CTETRA     16699       1     163    5428    3347    5427
CTETRA     16700       1     666    2762    3566    2795
CTETRA     16701       1    5427     163    2498    3347
CTETRA     16702       1     163    1491    3341    2508
CTETRA     16703       1    2671    4655    4686    4687
CTETRA     16704       1     163    1491    3349    3341
CTETRA     16705       1     582    2467    5065    5064
CTETRA     16706       1     582    5068    2491    5067
CTETRA     16707       1     582    5678    2491    5068
CTETRA     16708       1     582    2467    2103    5065
CTETRA     16709       1     430     431    1497    3531
CTETRA     16710       1     948    1549    1496    1564
CTETRA     16711       1     666    2762    2795    2848
CTETRA     16712       1    1735    2585    1739    1741
CTETRA     16713       1    2385    5740    3702    4085
CTETRA     16714       1    1425    1628    1613     254
CTETRA     16715       1    2102     432    1889    2942
CTETRA     16716       1     432     950    5362    5363
CTETRA     16717       1    1004     822     823    2640
CTETRA     16718       1    1786    5584    5560    5583
CTETRA     16719       1    2942    5362    5395     432
CTETRA     16720       1    5388    2942    5362    5395
CTETRA     16721       1    5513    5514    1779    5490
CTETRA     16722       1    1889    5362     432     950
CTETRA     16723       1    2106    2102    2951    2327
CTETRA     16724       1    1786    5537    5560    5561
CTETRA     16725       1    1115    4870    2432    4449
CTETRA     16726       1     597    5572    5549    5548
CTETRA     16727       1    1115    2432    4870     844
CTETRA     16728       1    2853    3108    2369    4057
CTETRA     16729       1    2350    2645    3116    2995
CTETRA     16730       1    2350     933    2645    2995
CTETRA     16731       1    1383    5457    5900    5434
CTETRA     16732       1    2350    1514    2369    4049
CTETRA     16733       1     933    2369    2350    1514
CTETRA     16734       1    2853    2948    4054    4053
CTETRA     16735       1    2369    4048    1454    4055
CTETRA     16736       1    5371    2388    1476    5372
CTETRA     16737       1    1865    4830    1461    4828
CTETRA     16738       1    1461    1463    4813    1462
CTETRA     16739       1    2045    5444    5420    5443
CTETRA     16740       1    1787    5445    5446    5422
CTETRA     16741       1    1777    5491    5468    5467
CTETRA     16742       1     551     552    5493    1467
CTETRA     16743       1     221    1316    2183    2219
CTETRA     16744       1    2388    4814    2387    1462
CTETRA     16745       1    1462     256    2388     253
CTETRA     16746       1     159    1705    2005    3281
CTETRA     16747       1    2960    2618    5507    2243
CTETRA     16748       1    5474     616    1465    5473
CTETRA     16749       1    1188    4865    2317    4861
CTETRA     16750       1    1367    5439    5440    5416
CTETRA     16751       1    2809    1188    1912    2813
CTETRA     16752       1    2232    5579    5578    5602
CTETRA     16753       1    1188    2578    4867    4864
CTETRA     16754       1    1188    2317    4860    4861
CTETRA     16755       1    1188    4860    2316    4864
CTETRA     16756       1    2510    2540    2524    2512
CTETRA     16757       1    2525    2526    2524    2512
CTETRA     16758       1     498    1905    1904    1902
CTETRA     16759       1    1483    5451    5452    5428
CTETRA     16760       1    1364    5475    5451    5474
CTETRA     16761       1    1364    5473    5450     203
CTETRA     16762       1    2540    3192    2459    1820
CTETRA     16763       1    2510    3242    2540    3241
CTETRA     16764       1     314    5591    5590    5614
CTETRA     16765       1    2540    3192    1820    3241
CTETRA     16766       1    2510    5105    2524    5106
CTETRA     16767       1    2524    5139    2430    5151
CTETRA     16768       1    2525    2524    2506    2430
CTETRA     16769       1    2524    2506    5133    2526
CTETRA     16770       1    1595    1496    5366    5387
CTETRA     16771       1    1496    1564    4252    1495
CTETRA     16772       1     204    3333    3321    3339
CTETRA     16773       1    1496    1564    1549    4255
CTETRA     16774       1    1564    4254    1549    4255
CTETRA     16775       1    1593    1499    1564    1546
CTETRA     16776       1    2385    3704    2669    3701
CTETRA     16777       1    5545    5544    1088    5568
CTETRA     16778       1    1794    5599    5711    5712
CTETRA     16779       1     499    5574    5575    5551
CTETRA     16780       1     948    1564    1495    1499
CTETRA     16781       1    1495    3540    4252    3539
CTETRA     16782       1    1593    3532    1499    3523
CTETRA     16783       1     430    1497    1495    3533
CTETRA     16784       1    1495    1497    3532    3533
CTETRA     16785       1    1801    1549    1551    1550
CTETRA     16786       1     187    2537    3107    2464
CTETRA     16787       1    2498    5450    5426    5449
CTETRA     16788       1    5427    2498    1364    5450
CTETRA     16789       1    3174    3107    3106     187
CTETRA     16790       1    5529    2243    2960    5506
CTETRA     16791       1    1654    2537    2841    3073
CTETRA     16792       1     315    5592    5569    5568
CTETRA     16793       1     931    1999     932     927
CTETRA     16794       1    1652     411    1653    2535
CTETRA     16795       1    2535    5172    1653    1652
CTETRA     16796       1    2535    1654    2464    2537
CTETRA     16797       1    5593     316    5616    5592
CTETRA     16798       1    2535    1653    5172    5169
CTETRA     16799       1    2195    5465    5488    5489
CTETRA     16800       1    2464    2746    2535    5169
CTETRA     16801       1    1490    2255    1376    1489
CTETRA     16802       1    5455    5456    2445    5432
CTETRA     16803       1    5464    2837    5487    1377
CTETRA     16804       1    3323    3331    3326    2745
CTETRA     16805       1    2068    2075    2634    2073
CTETRA     16806       1    2745    2365    3324    3323
CTETRA     16807       1    1367    5418    2499    3325
CTETRA     16808       1    2745    3327    5416    5417
CTETRA     16809       1    2745    3331    3326    3325
CTETRA     16810       1    1926    5586    5563    5562
CTETRA     16811       1    1755    1501    2381    1548
CTETRA     16812       1    2116    2922    4725    4722
CTETRA     16813       1    1445    2476    2362    1406
CTETRA     16814       1    2116    1715    5308    1857
CTETRA     16815       1    1931    5564    5563    5587
CTETRA     16816       1    1973    5286    2116    4725
CTETRA     16817       1    5287    2116    5308    5286
CTETRA     16818       1    1445    2362    2116     624
CTETRA     16819       1    1375    5438    5414    5437
CTETRA     16820       1    2116    5288    1715     624
CTETRA     16821       1    2116     624    5263    5288
CTETRA     16822       1    2236    1843    2423    2517
CTETRA     16823       1    1131    1660    2402    4273
CTETRA     16824       1    2402    1802    4270    4266
CTETRA     16825       1    2385    2708    4087    2386
CTETRA     16826       1    5461    5484    1374    1373
CTETRA     16827       1    1423    1843    2777    2434
CTETRA     16828       1    2402    4266    1660    1802
CTETRA     16829       1    2385    3702    5740    3700
CTETRA     16830       1    1423    2777     973    1733
CTETRA     16831       1     598    5525    5501    5524
CTETRA     16832       1    2408    2778    2517    4652
CTETRA     16833       1    2517    1843    4672    4671
CTETRA     16834       1    2828    2385    2670    3702
CTETRA     16835       1    5521    5498    5522    1465
CTETRA     16836       1     650     666    5221    3618
CTETRA     16837       1     822    1047    2779    1953
CTETRA     16838       1    1861    2282    2807    2283
CTETRA     16839       1     904    5521    5520    5544
CTETRA     16840       1    1377    5463    5487    5464
CTETRA     16841       1    2282    5226    2283    5220
CTETRA     16842       1     666    5229    2848    5230
CTETRA     16843       1    2152     651     650    2283
CTETRA     16844       1    5496    1465    5497    5520
CTETRA     16845       1     551    5468    5491    5492
CTETRA     16846       1      87    1056    1671    1047
CTETRA     16847       1    2537    3175    3107    5173
CTETRA     16848       1     312    1927    1928    2043
CTETRA     16849       1     904    5566    5543    5542
CTETRA     16850       1     186    5143    3087    2747
CTETRA     16851       1    3174    3175    3107    2537
CTETRA     16852       1    1656    1429     186    2747
CTETRA     16853       1    1090    5543    5566    5567
CTETRA     16854       1    1429     187     186    2746
CTETRA     16855       1    1654    1653    2535    2746
CTETRA     16856       1    1493    2837    1777    2195
CTETRA     16857       1    1587    1022    1589     411
CTETRA     16858       1     616    1365    1465    2092
CTETRA     16859       1     187    3174    2537    3073
CTETRA     16860       1     187     188    3207    3105
CTETRA     16861       1    1654    1429     187    3073
CTETRA     16862       1    1557    1563    1584    1035
CTETRA     16863       1     187     188    3105    3073
CTETRA     16864       1    2074    3991    1774    3948
CTETRA     16865       1    5903    5904    5526     259
CTETRA     16866       1    1848    5549    5572    5905
CTETRA     16867       1    5550    2139    5551     500
CTETRA     16868       1    1652    5153    5162    5163
CTETRA     16869       1    2074    2073    3947    3948
CTETRA     16870       1    2074    3991     906    1774
CTETRA     16871       1    2385    2670    3702    3701
CTETRA     16872       1    2856    5162    5153    5152
CTETRA     16873       1    4786    1693    1691    1641
CTETRA     16874       1    5328    2820    4789    1693
CTETRA     16875       1    1377    5486    5487    5463
CTETRA     16876       1    2820    4789    1693    1924
CTETRA     16877       1    2708    4079    2386    2736
CTETRA     16878       1    1376    2745    1367    2499
CTETRA     16879       1    1651    5162    5161    5175
CTETRA     16880       1    1924    1693    4786    4789
CTETRA     16881       1     931    1999    2654     932
CTETRA     16882       1    1692    1826    1693    1924
CTETRA     16883       1    1924    2820    4789    4791
CTETRA     16884       1    1786    5560    5537    5536
CTETRA     16885       1    1960    2820    1924    4791
CTETRA     16886       1    1920    5558    5559    5535
CTETRA     16887       1    1926    5562    5585    5586
CTETRA     16888       1    1924    4788    2589    2347
CTETRA     16889       1    1924    2589    4788    4787
CTETRA     16890       1    2838    3270    1991    1993
CTETRA     16891       1    1999     522    2840    3940
CTETRA     16892       1    3940    2840    3932     522
CTETRA     16893       1    2840    3455    2192    3433
CTETRA     16894       1    2840     522    3434    3932
CTETRA     16895       1    2840    2192    3455     943
CTETRA     16896       1     956    2192    2840     943
CTETRA     16897       1    2840     943    3434     523
CTETRA     16898       1    1848    5905    5904    5549
CTETRA     16899       1    5537    5514    5538    1781
CTETRA     16900       1    2708    3697    2709    3704
CTETRA     16901       1    2528     893     956    1991
CTETRA     16902       1     956    2033    2840    1991
CTETRA     16903       1    4790    1960    1924    4791
CTETRA     16904       1    1673    4756    1676    4757
CTETRA     16905       1    1676    1678    4757    4775
CTETRA     16906       1    2708    2961    4086    2736
CTETRA     16907       1    1670    1681    1676    1675
CTETRA     16908       1     793    3871    3891    3872
CTETRA     16909       1    1676    1959    1678    4775
CTETRA     16910       1     947    2131    2441    1412
CTETRA     16911       1    2447     532    1792    1764
CTETRA     16912       1    2441    1412    5216    5275
CTETRA     16913       1    2441    1412    5275    5271
CTETRA     16914       1    5241    2441    1306    1835
CTETRA     16915       1    1306    1410    2441    5271
CTETRA     16916       1    5241    5240    5215    2441
CTETRA     16917       1    1574    2512    2718    2455
CTETRA     16918       1    2540    1820    2436    3241
CTETRA     16919       1    2510    2511    2512    5115
CTETRA     16920       1    2511    3254    2896    3250
CTETRA     16921       1    2511    2896    2436    2718
CTETRA     16922       1    1578    1205    1558    1704
CTETRA     16923       1    1368    5463    5439    5462
CTETRA     16924       1    2436    1821    3240    1820
CTETRA     16925       1    2708    3700    5741    3703
CTETRA     16926       1    2436    3240    1821    3254
CTETRA     16927       1    2524    2510    5106    2540
CTETRA     16928       1    2591    1034    1015    2457
CTETRA     16929       1    2618    5508    5531    5532
CTETRA     16930       1    2512    5104    2455    2526
CTETRA     16931       1    2447    1764    2898    1228
CTETRA     16932       1    2194    1037    4007    1041
CTETRA     16933       1    1037    4007    1041    4005
CTETRA     16934       1    2194    4007    1037    4006
CTETRA     16935       1    2043    1928    1090    1931
CTETRA     16936       1    1031    1064    1045    1057
CTETRA     16937       1    2955    5532    5533    5509
CTETRA     16938       1     160     158    3012    2883
CTETRA     16939       1    1037    1036    4004    1039
CTETRA     16940       1    5555    2232    1621    5579
CTETRA     16941       1    2197    5531    5554    5555
CTETRA     16942       1    2385    2708    2386    2669
CTETRA     16943       1    5510    1377    5509    5486
CTETRA     16944       1    1038    2214    2194    1036
CTETRA     16945       1    2196    5556    5557    5533
CTETRA     16946       1    1037    1036    4006    4004
CTETRA     16947       1    2607    2783    2409    2609
CTETRA     16948       1    1465    5498    5475    5474
CTETRA     16949       1    2594    2788     700    2267
CTETRA     16950       1    2607    2783    2563    2778
CTETRA     16951       1    2409    1802    2974    4267
CTETRA     16952       1    2409    4267    2974    4271
CTETRA     16953       1    1062    2402    4269    4273
CTETRA     16954       1    2280    5162    5152    5161
CTETRA     16955       1    2385    2708    3704    3700
CTETRA     16956       1    2607    2609    2409    2974
CTETRA     16957       1    1465    5497    5521    5498
CTETRA     16958       1    2777    2434    2517    2778
CTETRA     16959       1     904    5544    5520    5543
CTETRA     16960       1    2777    2517    2434    1843
CTETRA     16961       1    2284     103     666     667
CTETRA     16962       1     667    3622    3618    3621
CTETRA     16963       1    1088     311    5545    5546
CTETRA     16964       1    3000    2620    4083    4082
CTETRA     16965       1     315    5569    5592    5593
CTETRA     16966       1    2043    5541    5564    5565
CTETRA     16967       1    1046    1953    1048    1047
CTETRA     16968       1    2153     103     104     105
CTETRA     16969       1    1619    2601    2620    2617
CTETRA     16970       1    2828    4083    2620    4077
CTETRA     16971       1     314    5568    5567    5591
CTETRA     16972       1    2601    2616    4103    2617
CTETRA     16973       1    2601    2616    4078    4103
CTETRA     16974       1    1170    1029     670    1555
CTETRA     16975       1    2720    1041    2823    3226
CTETRA     16976       1    2954    3221    1044    3100
CTETRA     16977       1    3832    3000    4082    4068
CTETRA     16978       1    1037    4005    1063    4003
CTETRA     16979       1    2720    1037    1063    1039
CTETRA     16980       1    1494    5468    5469    5445
CTETRA     16981       1    3997    2214    1036    2194
CTETRA     16982       1    2720    1063    4005    2879
CTETRA     16983       1    1063    4021    1224    4013
CTETRA     16984       1     580    3982    3981    4032
CTETRA     16985       1    1017    1039    2720    1063
CTETRA     16986       1    1063    4013    1224    1039
CTETRA     16987       1    2947    2386    2708    2669
CTETRA     16988       1    2708    4087    2386    4079
CTETRA     16989       1    2386    4104    2616    2630
CTETRA     16990       1    2386    2264    1619    2251
CTETRA     16991       1    2529    2961    2736    2530
CTETRA     16992       1    2828    2670    2601    2990
CTETRA     16993       1    1848    5550    5905    5573
CTETRA     16994       1    2139    5551    5527    5550
CTETRA     16995       1    2828    3677    2670    2990
CTETRA     16996       1    1848    5527    5904    5550
CTETRA     16997       1    2601    2386    4078    2616
CTETRA     16998       1     716    2620    2621    2663
CTETRA     16999       1    2620    2617    4077    4093
CTETRA     17000       1    1619    2601    2617    2616
CTETRA     17001       1    2867    3000    4082    2621
CTETRA     17002       1    2604    2608    2609    2773
CTETRA     17003       1    2607    2380    2778    2563
CTETRA     17004       1    2409    2974    2609    4271
CTETRA     17005       1    3000    2834    3831    3835
CTETRA     17006       1    2607    2783    2778    2409
CTETRA     17007       1    5904    5526     259    5549
CTETRA     17008       1    2609    2606    4268    2974
CTETRA     17009       1    2609    2606    4180    4268
CTETRA     17010       1    2778    2563    2380    4633
CTETRA     17011       1     204    1491    2366    3333
CTETRA     17012       1     598    5525    5526    5502
CTETRA     17013       1    2828    4085    2385    3702
CTETRA     17014       1    2386    2630    4079    4104
CTETRA     17015       1    2529    2736    2961    2709
CTETRA     17016       1    2961    4086    2736    4080
CTETRA     17017       1    2736    4105    2630    2389
CTETRA     17018       1    2529    2947    2736    2709
CTETRA     17019       1    1483    5452    5429    5428
CTETRA     17020       1     222     255     254    1422
CTETRA     17021       1    3834    3000    4082    3832
CTETRA     17022       1    2348    5901    5457    5480
CTETRA     17023       1    5514    5538    1781    5515
CTETRA     17024       1    2905    3439    3438    3457
CTETRA     17025       1    2609    2773    4180    2606
CTETRA     17026       1    2135    5517    5516    5540
CTETRA     17027       1    5492     551    5493    1776
CTETRA     17028       1    1781    5539    5516    5515
CTETRA     17029       1     975    2267    2582    1829
CTETRA     17030       1    2773    2582    4181    2606
CTETRA     17031       1    2773    2582    4187    4181
CTETRA     17032       1    1786    5538    5537    5561
CTETRA     17033       1    2604    2222     700     977
CTETRA     17034       1    2412    2846    2788    4598
CTETRA     17035       1    2788    2594    2564    4614
CTETRA     17036       1    1786    5562    5561    5585
CTETRA     17037       1    5907    1940    2431    5913
CTETRA     17038       1    2773    2581    4187    2582
CTETRA     17039       1    2412    2565    2846    4493
CTETRA     17040       1    4493    2565    4198    2412
CTETRA     17041       1     774    1884    1214    2877
CTETRA     17042       1    1831    2596    2565    3050
CTETRA     17043       1    5552    2139    5551    5528
CTETRA     17044       1    2581    1829    4204    2582
CTETRA     17045       1    2581    4214    4188    4204
CTETRA     17046       1    1759    2846    2595    2594
CTETRA     17047       1    2762    5232    2836    5231
CTETRA     17048       1    2837    2195    5464    5488
CTETRA     17049       1    2843    5231    5225    2807
CTETRA     17050       1     666    3618     667    3622
CTETRA     17051       1    2232    1620     287    1794
CTETRA     17052       1    2735     410    2378    5187
CTETRA     17053       1    2045    2499    5420    1788
CTETRA     17054       1     666    2282    2848    2795
CTETRA     17055       1    2807    5231    5225    5230
CTETRA     17056       1    1861    2284    2795    2282
CTETRA     17057       1    1862    1863    2794    2836
CTETRA     17058       1    2828    3678    2990    2834
CTETRA     17059       1    2828    2385    4085    2601
CTETRA     17060       1    3000    2620    2621    2834
CTETRA     17061       1     721    2621    2867    2812
CTETRA     17062       1    2621    4070    2663    4076
CTETRA     17063       1    3236    2634     814    3256
CTETRA     17064       1     716    2990    1619    2252
CTETRA     17065       1    1705    3272    2005    3281
CTETRA     17066       1    1480    2342    5454    5455
CTETRA     17067       1    1081    1763    2940    1086
CTETRA     17068       1    5485    1373    5461    5462
CTETRA     17069       1    1739    2817    2585    2940
CTETRA     17070       1    2933    2738    3506    3503
CTETRA     17071       1    2082    5070     477     476
CTETRA     17072       1    2956    1737    3501    3500
CTETRA     17073       1    1931    5587    5563    5586
CTETRA     17074       1    1926    5540    5563    5564
CTETRA     17075       1    1741    3499    1740    2765
CTETRA     17076       1    1741    1740    3499    3506
CTETRA     17077       1    1735    2765    1741    1740
CTETRA     17078       1    2956    2586    5310    5309
CTETRA     17079       1    2585    1735    1763    2586
CTETRA     17080       1    3345    2737    3339    3344
CTETRA     17081       1    2229    5479    5478    5502
CTETRA     17082       1    2585    2940    5311    2587
CTETRA     17083       1    2229    5479    5503    5480
CTETRA     17084       1    2933    2585    5335    5336
CTETRA     17085       1    2585    2940    5335    5311
CTETRA     17086       1    1499    1564    1424     948
CTETRA     17087       1    2757    1499    2358    1545
CTETRA     17088       1    1546    4249    2937    4248
CTETRA     17089       1    1367    5440    5417    5416
CTETRA     17090       1    2499    2366    3323    3322
CTETRA     17091       1    2081    5167    5176    5177
CTETRA     17092       1    1546    4248    1551    4254
CTETRA     17093       1    3052    1816    4563    4195
CTETRA     17094       1     754    4192    4194    4191
CTETRA     17095       1    1593    1594    1546    4253
CTETRA     17096       1    1593    1546    4251    4253
CTETRA     17097       1    1377    5485    5486    5462
CTETRA     17098       1    2618    5507    5508    5484
CTETRA     17099       1    1889    2215    1990    2942
CTETRA     17100       1    2004    3272    1705    3244
CTETRA     17101       1    1424    1551    1801    1549
CTETRA     17102       1    2937    1464    1252    1546
CTETRA     17103       1    1499    1497    1547    3534
CTETRA     17104       1    1594    3523    1499    3524
CTETRA     17105       1    1499    3534    2358    3524
CTETRA     17106       1    1585    5367     949    5386
CTETRA     17107       1    2657    1530    4225    4233
CTETRA     17108       1    3076    3718    4208    5748
CTETRA     17109       1    1781    5539    5515    5538
CTETRA     17110       1    1465    5521    5497    5520
CTETRA     17111       1    2448    3719    1970    2657
CTETRA     17112       1    1758    1283    2453    2454
CTETRA     17113       1    2079    2454    2878    2449
CTETRA     17114       1    5498    5522    1465    5499
CTETRA     17115       1    1970    1530    1529    1532
CTETRA     17116       1    1482    5522    5523    5499
CTETRA     17117       1    3719    3076    2657    2448
CTETRA     17118       1     311    5546    5522    5545
CTETRA     17119       1    1688    1689    1687    4856
CTETRA     17120       1    1688    4863    2578    4857
CTETRA     17121       1    2813    4863    1688    4403
CTETRA     17122       1    1688    4396    4862    4855
CTETRA     17123       1    1970    4223    2548    4232
CTETRA     17124       1    4728    2240    2241    2242
CTETRA     17125       1    1970    1529    4233    4232
CTETRA     17126       1     311    5521    5545    5522
CTETRA     17127       1    1465    5520     904    5521
CTETRA     17128       1    2200    2454    2656    1758
CTETRA     17129       1     880     881    2878     548
CTETRA     17130       1    5501    5524    5500    1482
CTETRA     17131       1    3000    2835    2621    2867
CTETRA     17132       1    1776    5491    5515    5492
CTETRA     17133       1    1530    2657    1970    4233
CTETRA     17134       1    3719    2657    4208    4207
CTETRA     17135       1    2656    2443    1969    2080
CTETRA     17136       1    2448    2454    3724    3721
CTETRA     17137       1      34      35      36    2547
CTETRA     17138       1    1969    2656    2448    1970
CTETRA     17139       1    5528    2139    5527    5504
CTETRA     17140       1    1758    2657    3076    2448
CTETRA     17141       1    2657    1970    4224    4207
CTETRA     17142       1    3076    3719    2657    4208
CTETRA     17143       1    2956    2584    1737    2586
CTETRA     17144       1     259    5503    5903    5902
CTETRA     17145       1    1741    3506    2738    1740
CTETRA     17146       1    2106    2584    3511    3512
CTETRA     17147       1    3511    2107    3510    1737
CTETRA     17148       1     931    1993    2654    1999
CTETRA     17149       1    1736    1763    2587    1898
CTETRA     17150       1    1735    1741    2765    1737
CTETRA     17151       1    2366    3336    3322    3333
CTETRA     17152       1    1781    2135    1782    1467
CTETRA     17153       1    1737    2765    3510    3500
CTETRA     17154       1    2586    5390    2587    5310
CTETRA     17155       1    2618    5508    5509    5485
CTETRA     17156       1    2584    2583    5393    5394
CTETRA     17157       1    2955    5487    5510    5511
CTETRA     17158       1    2955    5533    5510    5509
CTETRA     17159       1    2956    1741    2585    1737
CTETRA     17160       1    2106    3511    2584    1737
CTETRA     17161       1    1528    1760    5728    5727
CTETRA     17162       1    2955    5510    5534    5511
CTETRA     17163       1     311    5546    5523    5522
CTETRA     17164       1    2817    5334    2940    1084
CTETRA     17165       1    2817    5335    2585    2940
CTETRA     17166       1    2817    2819    1086    2738
CTETRA     17167       1    3000    2834    2621    2835
CTETRA     17168       1    2828    2834    3000    3678
CTETRA     17169       1    1776    5514    5515    5491
CTETRA     17170       1    1467    5516    5517    5493
CTETRA     17171       1    3016    3832    3000    2835
CTETRA     17172       1    1450    2667     920    2666
CTETRA     17173       1    2867    2812    4069    4157
CTETRA     17174       1    2621    2834     716    2791
CTETRA     17175       1     259    5527    5504    5903
CTETRA     17176       1     598    5526    5525    5549
CTETRA     17177       1    2385    4087    2708    3700
CTETRA     17178       1    2736    2389    4080    4105
CTETRA     17179       1     932     927    1999    3957
CTETRA     17180       1    2531    2530    2962    3047
CTETRA     17181       1     259    5526    5903    5503
CTETRA     17182       1    3000    3831    2835    3832
CTETRA     17183       1    2962    2530    4081    4084
CTETRA     17184       1    2530    2389    2353    4106
CTETRA     17185       1    2353    2352      72    2530
CTETRA     17186       1     162    2719    3066    2868
CTETRA     17187       1    2711    2667    4163     920
CTETRA     17188       1    1792     532     932    3953
CTETRA     17189       1     176    4691     177    4659
CTETRA     17190       1    2900    4742    1004    4747
CTETRA     17191       1    1727    3615    3605    2916
CTETRA     17192       1    2681     933    1516    2359
CTETRA     17193       1    2805    4657    4688    4689
CTETRA     17194       1    1005    3627    3647    3644
CTETRA     17195       1     931    1705    2004    2005
CTETRA     17196       1    3037    4617    4636    4618
CTETRA     17197       1     796    4728     797    4709
CTETRA     17198       1     876      95    1833    1450
CTETRA     17199       1    2384    4130    1486    4129
CTETRA     17200       1    2284    2795     666    2839
CTETRA     17201       1    4020    2879    3219    4002
CTETRA     17202       1    2475    4751    4762    4752
CTETRA     17203       1    4160     920    4129    2384
CTETRA     17204       1     932    1999    3952    3957
CTETRA     17205       1    2505    4680    4710    4681
CTETRA     17206       1     952     788     951    2242
CTETRA     17207       1    1345    3624    3625    2538
CTETRA     17208       1     557    2331      30    2743
CTETRA     17209       1     921     930    1492     933
CTETRA     17210       1    2916    1965     769    3611
CTETRA     17211       1    2805    4742    4688    2685
CTETRA     17212       1    3026    2384    1516    2681
CTETRA     17213       1    1515    4130    4161    4131
CTETRA     17214       1    2671    4687    4656    4655
CTETRA     17215       1    3026    3923    1516    3924
CTETRA     17216       1    3026    2384    2681     920
CTETRA     17217       1    1515    1516    1514    3989
CTETRA     17218       1    2427    4413    4421    4414
CTETRA     17219       1    2519    2111    4477    4676
CTETRA     17220       1     946    2234     945    1405
CTETRA     17221       1    2578    4857    4863    4864
CTETRA     17222       1    1066    4020    4021    1063
CTETRA     17223       1     141    4422    4414    4421
CTETRA     17224       1    3097    3393    3392    3396
CTETRA     17225       1    3026    2384     920    4160
CTETRA     17226       1    1077    1085    2680    3056
CTETRA     17227       1    1915     324     326    1413
CTETRA     17228       1    2763    1837    1183    2959
CTETRA     17229       1    1837    3489    2959    2946
CTETRA     17230       1    1837    3505    1183    3488
CTETRA     17231       1    1837    1740    1183    3505
CTETRA     17232       1    3066    5057    2040    2868
CTETRA     17233       1    2868    3066    5057    5112
CTETRA     17234       1    1758    2657    1530    1339
CTETRA     17235       1    2719    2896    5111    2718
CTETRA     17236       1     162    2719    2868    3009
CTETRA     17237       1    1599    1334    3755    2872
CTETRA     17238       1    1284    1285    1299    1283
CTETRA     17239       1    1283    3720    3680    3681
CTETRA     17240       1    1336    3766    2874    3776
CTETRA     17241       1    2868    5101    1522    3009
CTETRA     17242       1     160    1522    2868    1440
CTETRA     17243       1    2879    1063    4005    4002
CTETRA     17244       1    2751    4929    4985    4930
CTETRA     17245       1    2257    4947    4930    4931
CTETRA     17246       1    1526    2238    2237    5723
CTETRA     17247       1    2868    1522    5101    5056
CTETRA     17248       1     162    3066    1206    2040
CTETRA     17249       1    2905    5683    3305    5684
CTETRA     17250       1     894     896    2033     931
CTETRA     17251       1    2800    3446    4313    5684
CTETRA     17252       1     200    2963    1994    2157
CTETRA     17253       1    1706    2634    2075    1792
CTETRA     17254       1    2068    1558    2634    1706
CTETRA     17255       1    3438    5626    5684    3283
CTETRA     17256       1    2905    3438    3283    3455
CTETRA     17257       1    2068    3236     814    3188
CTETRA     17258       1     814    3256    3237    3236
CTETRA     17259       1    2635    2800    4312    2861
CTETRA     17260       1    2068    2447    1706    2075
CTETRA     17261       1    2885    3807    3467    3806
CTETRA     17262       1    4465    2372    3088    4466
CTETRA     17263       1    1149    5016    5037    5017
CTETRA     17264       1    4002    4020    5638    3219
CTETRA     17265       1    2751    4985    4984    4930
CTETRA     17266       1    4986     761     592    4929
CTETRA     17267       1    2634    2073    3235    3236
CTETRA     17268       1    2257    4930    4984    4931
CTETRA     17269       1    2826    4990    4969    4968
CTETRA     17270       1    1706    2833    2634    1792
CTETRA     17271       1    1532    2657    1970    1530
CTETRA     17272       1    1558    2325     814    2634
CTETRA     17273       1    2068    2075    2074    1774
CTETRA     17274       1    2453    3723    3681    3682
CTETRA     17275       1    1529    1530    4233    4234
CTETRA     17276       1    2075    1774    3949    3948
CTETRA     17277       1    3072    5027    5007    5006
CTETRA     17278       1    2075    2073    3948    3959
CTETRA     17279       1    1391     933    2975    2645
CTETRA     17280       1    1771    2075    3959    2073
CTETRA     17281       1    2879    2720    1063    1066
CTETRA     17282       1    2702    5025    5026    5005
CTETRA     17283       1    2289    5031    5128    5032
CTETRA     17284       1    1280    5726    5725    3661
CTETRA     17285       1    2815    4928    4929    4950
CTETRA     17286       1    2661    4502    2659    4578
CTETRA     17287       1    1357    1362    5606    5583
CTETRA     17288       1    1817    3059    4583    4578
CTETRA     17289       1    1845    2416     425    2688
CTETRA     17290       1    2815    4950    4929    4951
CTETRA     17291       1    2751    4985    4929    4986
CTETRA     17292       1     592    4890    4928    4891
CTETRA     17293       1    2661    2659    1817    4578
CTETRA     17294       1    2515    4970    4984    4985
CTETRA     17295       1    2901    4657    4637    4656
CTETRA     17296       1    2495    2658    1536    2659
CTETRA     17297       1    2863    5254    5261    5256
CTETRA     17298       1    3956    3955    1764     532
CTETRA     17299       1    2248    5257    5261    5258
CTETRA     17300       1    2228    4769    4768    4776
CTETRA     17301       1    1637    3079    2300    2301
CTETRA     17302       1    1121    1122    3786    1825
CTETRA     17303       1    2684    3894    3920    3921
CTETRA     17304       1    2812    4157    4070    4069
CTETRA     17305       1    2812    4157    4177    4070
CTETRA     17306       1    1817    3058    4583    3059
CTETRA     17307       1    3894    3921    2684    2439
CTETRA     17308       1    2879    1067    3222    3220
CTETRA     17309       1    2621    4082    4069    4076
CTETRA     17310       1    4556    1817    4564    3058
CTETRA     17311       1    2683    3896    3895    3922
CTETRA     17312       1    1991    2192    3259    3433
CTETRA     17313       1    2961    4080    2736    2530
CTETRA     17314       1    2961    3047    3697    3712
CTETRA     17315       1    1991    3261    2528    1992
CTETRA     17316       1    1991    2528    3261    3260
CTETRA     17317       1    1715    5288    5307    5304
CTETRA     17318       1    1991    2192    3260    3259
CTETRA     17319       1    1404    4837    4955    4838
CTETRA     17320       1    1147    1320    2018    5708
CTETRA     17321       1    2413    2922    4714    4724
CTETRA     17322       1    1400    4322    4321    4346
CTETRA     17323       1     982    3436     523     483
CTETRA     17324       1    1991    1993    3270    3267
CTETRA     17325       1    1679    4922    4327    4923
CTETRA     17326       1    4327    4923    5827    4927
CTETRA     17327       1    4936    2612    4943    2741
CTETRA     17328       1    2033     522    2840    1999
CTETRA     17329       1    2971    4326    4302    4320
CTETRA     17330       1    2961    3712    2962    3047
CTETRA     17331       1    2072    4320    4302    4301
CTETRA     17332       1    2530    4106    2353    4081
CTETRA     17333       1    3006    2352    3036    3082
CTETRA     17334       1    1401    4347    4322    4346
CTETRA     17335       1    3036    4067    2352    4066
CTETRA     17336       1    2352    4107    2353    2351
CTETRA     17337       1    2351    3008      71    2352
CTETRA     17338       1    3016    2835    3000    2867
CTETRA     17339       1     931    2005     894     161
CTETRA     17340       1    1218    4581    4488    4489
CTETRA     17341       1     721    2867    2666    2812
CTETRA     17342       1    1450    2934    2683    2681
CTETRA     17343       1     216    4489    4594    4595
CTETRA     17344       1    3053    3492    2382    2383
CTETRA     17345       1    2595    4491    4597    4492
CTETRA     17346       1    2961    2962    4084    2530
CTETRA     17347       1    1450     920    2711    2681
CTETRA     17348       1    1513    1516    1515    2384
CTETRA     17349       1    2685    4687    4688    4656
CTETRA     17350       1    2667    4156    2666    4159
CTETRA     17351       1    1792    3954    1764    3956
CTETRA     17352       1    2683    1833    2439    1553
CTETRA     17353       1    2667    2666    4156     920
CTETRA     17354       1    2814    4950    4952    4892
CTETRA     17355       1    2961    3703    5742    3696
CTETRA     17356       1     919     321     924     876
CTETRA     17357       1    1553    2934    2835    2439
CTETRA     17358       1    2828    3678    3000    4083
CTETRA     17359       1    2711    3026    4163    4162
CTETRA     17360       1    2987    4546    4551    4547
CTETRA     17361       1    3035    4621    4620    4639
CTETRA     17362       1    2980    5015    4882    5014
CTETRA     17363       1    3090    4601    4602    4586
CTETRA     17364       1    2882    3853    3851    3852
CTETRA     17365       1    2867    2812    4157    2666
CTETRA     17366       1    3016    2711    3877    2934
CTETRA     17367       1    2660    3079    4501    4526
CTETRA     17368       1     916    2401    2426    2787
CTETRA     17369       1    2660    4192     744    4061
CTETRA     17370       1    2658    2659    2660    3079
CTETRA     17371       1    1537    1536    2728    3059
CTETRA     17372       1    1536    3059    2301    2728
CTETRA     17373       1    2658    2941    2660     744
CTETRA     17374       1    2708    2961    2736    2709
CTETRA     17375       1    2160    4992    4993    4971
CTETRA     17376       1    2658    2401    2660    2941
CTETRA     17377       1     592    4987    4928    4890
CTETRA     17378       1    2045    1376    2499    1788
CTETRA     17379       1     932    3957     532     927
CTETRA     17380       1    1383    2393    5899    5900
CTETRA     17381       1    1383    2393    3312    5412
CTETRA     17382       1    1383    2622    3316    3309
CTETRA     17383       1    1776     551    5493    1467
CTETRA     17384       1    2708    2961    3697    3703
CTETRA     17385       1    2445    5455    5479    5456
CTETRA     17386       1    3312    3314    5412    2393
CTETRA     17387       1     203    2737    1491     204
CTETRA     17388       1    1383    3318    3309    3316
CTETRA     17389       1     551    5469    5492    5493
CTETRA     17390       1    1383    3074    3309    3308
CTETRA     17391       1    1914     842    5294    5296
CTETRA     17392       1    5450     203    2498    1364
CTETRA     17393       1    5471    5472     552    5448
CTETRA     17394       1    5452    5451    1483    5475
CTETRA     17395       1    2622    3335    3310    3309
CTETRA     17396       1    2508    3342    3341    3346
CTETRA     17397       1     203    5449    5448    5472
CTETRA     17398       1    5136    1873    5129    1665
CTETRA     17399       1    5476    1480    1483    5453
CTETRA     17400       1     618     566     822     619
CTETRA     17401       1    2442    3640    3626    3625
CTETRA     17402       1    1934     818    5284     652
CTETRA     17403       1    3074    2393    3312    1383
CTETRA     17404       1    1441    5209    2077    5222
CTETRA     17405       1    1874    3087    1656     211
CTETRA     17406       1    2152    2153     667     423
CTETRA     17407       1    1383    3312    3074    3308
CTETRA     17408       1    2255    1383    3074    2622
CTETRA     17409       1    2545    1116    2361    2360
CTETRA     17410       1     561      41    2138     733
CTETRA     17411       1    5023    5024    2554    2555
CTETRA     17412       1    1114    1256    2361    1115
CTETRA     17413       1    2361    4164    2360    4172
CTETRA     17414       1    1650    2492    1647    2496
CTETRA     17415       1    1031    1044    1045    1030
CTETRA     17416       1    2361    2360    4164    1159
CTETRA     17417       1    4011    1223    4010    1744
CTETRA     17418       1    4016    4023    4022    2721
CTETRA     17419       1    1256    2361    4172    4171
CTETRA     17420       1    1157    2361    1114     914
CTETRA     17421       1     913    1162    4514    4510
CTETRA     17422       1    2865    4762    4760    4761
CTETRA     17423       1    2545     843    1256    1116
CTETRA     17424       1    3087    1657    3209    3213
CTETRA     17425       1    2275    5232    3590    3595
CTETRA     17426       1    2964    3666    3665    3852
CTETRA     17427       1    2964    3784    3665    3666
CTETRA     17428       1    3094    3851    3849    3850
CTETRA     17429       1    2673    2294    3688    2295
CTETRA     17430       1    2914    3666    3667    3753
CTETRA     17431       1    1157    1159    2361     914
CTETRA     17432       1    1068    1158    2432    1894
CTETRA     17433       1    4641    4640    2742    2323
CTETRA     17434       1     395    3852    3851    3850
CTETRA     17435       1     372    1434    1451     371
CTETRA     17436       1    3789    3795    3787    1126
CTETRA     17437       1    2742    2181    1918    2575
CTETRA     17438       1    1327    4604    4588    4603
CTETRA     17439       1     395    3852    3850    3666
CTETRA     17440       1    2985    5013    5033    5034
CTETRA     17441       1    1256     843    4869    4868
CTETRA     17442       1    3087    5666    5147    5143
CTETRA     17443       1    1201    1972    1154    1155
CTETRA     17444       1    1114    4170     913     914
CTETRA     17445       1    3019    2894    4544    4547
CTETRA     17446       1    2880    3818    3855    3817
CTETRA     17447       1    2780    1747    1744    4001
CTETRA     17448       1     663     633    3408    1592
CTETRA     17449       1    1951    3856    3857    3858
CTETRA     17450       1     722     633    3359    3403
CTETRA     17451       1    2968    3019    2894    4544
CTETRA     17452       1    2724    4587    4586    4602
CTETRA     17453       1     915    1158    4450    2432
CTETRA     17454       1    1985    5013    5012    5033
CTETRA     17455       1     915    4450    1158    4513
CTETRA     17456       1    1934     664    5268     817
CTETRA     17457       1    2811     647    2427    4419
CTETRA     17458       1    3087    5143    3214    5666
CTETRA     17459       1    2819    2680    5338    5350
CTETRA     17460       1     642    4420    4428    4421
CTETRA     17461       1    1404    1935     954    4955
CTETRA     17462       1    2715    3842    3841    3671
CTETRA     17463       1     911    2912    2173    4498
CTETRA     17464       1    1587    1653    1430    1652
CTETRA     17465       1    1086    1084    2817    2940
CTETRA     17466       1    2553    2740    2881     765
CTETRA     17467       1    2584    2586    5393    2583
CTETRA     17468       1    2933    1741    3507    3506
CTETRA     17469       1    4510    1158     915    1895
CTETRA     17470       1     141    4416    4415    4423
CTETRA     17471       1    1413    1405    1939    4839
CTETRA     17472       1    3057    2819    5338    5344
CTETRA     17473       1    2819    1084    2680    5350
CTETRA     17474       1    2763    1178    1085    1177
CTETRA     17475       1    1283    3076    2448    1758
CTETRA     17476       1    4417    4867    5817    4866
CTETRA     17477       1    4410    4417    2813    4867
CTETRA     17478       1    1188    4864    4867    4866
CTETRA     17479       1    4581    1218    2729    4558
CTETRA     17480       1    1338    1339    4210    4209
CTETRA     17481       1    1339    2469    4226    1530
CTETRA     17482       1    1312    2501     773    1218
CTETRA     17483       1    3087    2747    5143    5142
CTETRA     17484       1     773    4564    4557    4562
CTETRA     17485       1    2575    4604    4621    4622
CTETRA     17486       1    2614    2619    3573    3547
CTETRA     17487       1    2472    4484    4483    4589
CTETRA     17488       1    4602    2473    1325    4620
CTETRA     17489       1    1299    1301    1339    2469
CTETRA     17490       1    2657    1339    4225    1530
CTETRA     17491       1    1673    1675    5246    5244
CTETRA     17492       1    1670    2249    2863    1049
CTETRA     17493       1    1049    1674    2865    1524
CTETRA     17494       1    4475    2945    2413    2110
CTETRA     17495       1    1049    1674    1672    2865
CTETRA     17496       1    1523    5243    1674    5247
CTETRA     17497       1     326    2994    2611    4937
CTETRA     17498       1    1881    4953    4948    4961
CTETRA     17499       1    1934     817    5268     818
CTETRA     17500       1    2515    3098    4992    4991
CTETRA     17501       1    1673    5246    2866    4756
CTETRA     17502       1    1672    1292    4761    4758
CTETRA     17503       1    1049    1674    1524    2863
CTETRA     17504       1    1523    4764    1672    4761
CTETRA     17505       1    1326    4620    4621    4603
CTETRA     17506       1    2483    3473    2931    3472
CTETRA     17507       1    1649    3673    3707    3706
CTETRA     17508       1     844     845    5023    5002
CTETRA     17509       1    1049    1672    1292    2865
CTETRA     17510       1    1827     980    1615    1830
CTETRA     17511       1    1672    4758    1678    1292
CTETRA     17512       1    2866    1675    5245    5246
CTETRA     17513       1    1675    1670    1673    1676
CTETRA     17514       1    1969    2448    2449    3722
CTETRA     17515       1    1970    2443    2548    4223
CTETRA     17516       1     501    2989    2472    2892
CTETRA     17517       1      53    2965    2446    2189
CTETRA     17518       1    1213    1190    2730    2920
CTETRA     17519       1    2962    4067    3036    3713
CTETRA     17520       1    1256    2804    1116     843
CTETRA     17521       1    2352    2351    4066    4107
CTETRA     17522       1    1256    1115    4869     843
CTETRA     17523       1    3036    4066    2352    3008
CTETRA     17524       1    1256    2804    4167    1116
CTETRA     17525       1    1256    4448    5788    4868
CTETRA     17526       1    2853    4054    2948    3139
CTETRA     17527       1    3689    3719    1969    3722
CTETRA     17528       1     889    2995     890    1806
CTETRA     17529       1    4555    5798    5799    4194
CTETRA     17530       1    2443    2548    4221      36
CTETRA     17531       1    2267    2582    2773    2606
CTETRA     17532       1    2659    4582    4578    4501
CTETRA     17533       1    1537    2495     772      59
CTETRA     17534       1    1491    3334    3340    3341
CTETRA     17535       1    3008      36    4065    2351
CTETRA     17536       1    5512    2955    2199    5511
CTETRA     17537       1    1480    5476    1483    1365
CTETRA     17538       1    2545    1116    1256    2361
CTETRA     17539       1    1367    2499    5418    5419
CTETRA     17540       1     978    2694    3080    2693
CTETRA     17541       1    2080    2443    3008      36
CTETRA     17542       1    3312    1752    3074    3307
CTETRA     17543       1    3008    4065      36    4222
CTETRA     17544       1    5683    2108    2800    2905
CTETRA     17545       1    2904    2108    3304    5683
CTETRA     17546       1    2904    2192     943    3455
CTETRA     17547       1    2833    3244    3245    3258
CTETRA     17548       1    1999    3941    3933    3940
CTETRA     17549       1    2898    3973    3951    3950
CTETRA     17550       1    1774    3964    1764    3949
CTETRA     17551       1     661    2642     928     495
CTETRA     17552       1    2634    3258    3256    3236
CTETRA     17553       1    2904    2192    3455    3283
CTETRA     17554       1     929    1887    1921    1901
CTETRA     17555       1    2904    2192    3283    3284
CTETRA     17556       1    2690    3849    3847    3848
CTETRA     17557       1    2768    3707    3674    3699
CTETRA     17558       1    2487    3853    2882    2486
CTETRA     17559       1    1256    4869    1115    4448
CTETRA     17560       1    2904    2029    3284    3304
CTETRA     17561       1    2836     492    5228    5227
CTETRA     17562       1    2903    3667    3850    3848
CTETRA     17563       1    2836    2843    5224    2842
CTETRA     17564       1    1570    2755    2756    1565
CTETRA     17565       1     667     683    3632    3621
CTETRA     17566       1    2962    3696    4084    5743
CTETRA     17567       1    1701    4551    2987    4546
CTETRA     17568       1    3862    2698    2697    3861
CTETRA     17569       1    5034    2985    2756    5033
CTETRA     17570       1    2836     492    2275    2078
CTETRA     17571       1    2836    2794    2078    2275
CTETRA     17572       1    2724    4481    4586    4587
CTETRA     17573       1    2726    2966    4482    4481
CTETRA     17574       1    2980    5015    5014    5035
CTETRA     17575       1     386    2964    2914    1825
CTETRA     17576       1     177    2188    4640    2323
CTETRA     17577       1    2836    5224    2843    5231
CTETRA     17578       1    2103    3295    3297    3300
CTETRA     17579       1    1863    2794    2762    2795
CTETRA     17580       1    2848    1861    2807    1863
CTETRA     17581       1     980    1615    1600    1827
CTETRA     17582       1    4891    2815    4928     592
CTETRA     17583       1    2734    3176    3020    2313
CTETRA     17584       1    2256    4929    4930    4951
CTETRA     17585       1    1298    1301    1300    4200
CTETRA     17586       1    2536    2313    2307    3172
CTETRA     17587       1     366    4895    4474    4894
CTETRA     17588       1    2536     410    2735    2081
CTETRA     17589       1    2945    4475     366    4895
CTETRA     17590       1    4472    4471    2202    4892
CTETRA     17591       1     654    4444    4445    5836
CTETRA     17592       1     313     367    2413    1716
CTETRA     17593       1     378     379     541     108
CTETRA     17594       1    3037    4464    4617    4600
CTETRA     17595       1     589    3607    3469    3470
CTETRA     17596       1    2179    3046    1126    2337
CTETRA     17597       1     411    2146    2145    2536
CTETRA     17598       1    2962    3711    3082    3712
CTETRA     17599       1    1615    4275    4184    1827
CTETRA     17600       1    3172    2307    3148    2313
CTETRA     17601       1    1615    4285    1230    4276
CTETRA     17602       1    2313    2310    3148    3149
CTETRA     17603       1    2893    4570    4539    4484
CTETRA     17604       1    2536    2735    2734    2081
CTETRA     17605       1    3020    5182    3021    5192
CTETRA     17606       1    3020    2944    2310    3149
CTETRA     17607       1    2917    3608    3610    3600
CTETRA     17608       1    2900    4747    4748    4742
CTETRA     17609       1    2734    5168    2081    5177
CTETRA     17610       1    2536    2537    3173    2307
CTETRA     17611       1    2248    5257    5258    5250
CTETRA     17612       1    2805    4748    4689    4688
CTETRA     17613       1    2920    4748    4754    4755
CTETRA     17614       1    2310     109    3021    3020
CTETRA     17615       1    2699    3817    3857    3816
CTETRA     17616       1    2700    3840    3815    3816
CTETRA     17617       1    2950    1769     923    1783
CTETRA     17618       1    2697    3880    3907    3881
CTETRA     17619       1    4137     926    2996    1769
CTETRA     17620       1    3043    4138    2996    4137
CTETRA     17621       1     923    1769     925    1783
CTETRA     17622       1     933     921    2384    1513
CTETRA     17623       1    1839    2337    1127    2314
CTETRA     17624       1     344     343    1129    2009
CTETRA     17625       1    2893    1701    4539    4540
CTETRA     17626       1    1122    3753    3752    3786
CTETRA     17627       1    4275    4285    4183    1827
CTETRA     17628       1    2986    2987    3019    4547
CTETRA     17629       1    3043     526     923    1276
CTETRA     17630       1    1813    3130    3114    3115
CTETRA     17631       1    2348    2349    2268    2393
CTETRA     17632       1    2045    5443    5467    5444
CTETRA     17633       1    1368    2195    1376    1367
CTETRA     17634       1    2212    4140    1769    4144
CTETRA     17635       1    2962    3036    4067    2352
CTETRA     17636       1    2950    1780    1813    5203
CTETRA     17637       1    2737    3340    3339    3344
CTETRA     17638       1    2737    1491     204    3340
CTETRA     17639       1    2414     769     768     779
CTETRA     17640       1    2730    1213    1212     695
CTETRA     17641       1    2944    1814    3155    5191
CTETRA     17642       1    2806    4657    4658    4638
CTETRA     17643       1     527    5196     524    5200
CTETRA     17644       1     527    5200    1809    2626
CTETRA     17645       1    2655    4334    3449    3351
CTETRA     17646       1    2804    1118    1116     843
CTETRA     17647       1    2804    4167    1116    4168
CTETRA     17648       1    1229    4283    1615    4276
CTETRA     17649       1    2926    2162    4305    2562
CTETRA     17650       1    2088    4343    4344    4299
CTETRA     17651       1    2182    5715    1811    5714
CTETRA     17652       1    2962    3713    5743    4067
CTETRA     17653       1    1116    4165    2360    1117
CTETRA     17654       1     513      69     329      67
CTETRA     17655       1    2545    1116     320     843
CTETRA     17656       1    1935    4836    4956    4837
CTETRA     17657       1    2961    2962    2530    3047
CTETRA     17658       1    2277     322    1276    2422
CTETRA     17659       1    1074    4655    4635    4654
CTETRA     17660       1     890    2948    1806    2995
CTETRA     17661       1    2948    1806    3152    2998
CTETRA     17662       1    2948    2998    3152    3136
CTETRA     17663       1    2948    3141    2857    3136
CTETRA     17664       1    2853    3139    2948    3137
CTETRA     17665       1    1937    4836    4837    4848
CTETRA     17666       1    2961    3696    2962    3712
CTETRA     17667       1     683    3404    3360    3361
CTETRA     17668       1      10      11      15      12
CTETRA     17669       1    2110    4476    4475    4836
CTETRA     17670       1    2567    2568    4033    4029
CTETRA     17671       1    2567    2568    4029    1065
CTETRA     17672       1    2111    4477    4676    4476
CTETRA     17673       1    2110    4475    4476    4677
CTETRA     17674       1     210    2114     209     653
CTETRA     17675       1    2723    3892    2870    1452
CTETRA     17676       1    5902    2862     259    2229
CTETRA     17677       1    1075    2569    1065     574
CTETRA     17678       1    2393    5413    5412    5436
CTETRA     17679       1    1934    3404    3361    5860
CTETRA     17680       1    1827    1615    1600    4184
CTETRA     17681       1    2566    4038    2567    4033
CTETRA     17682       1    1816    2661    4555    4194
CTETRA     17683       1    4564    1816    1817    4563
CTETRA     17684       1    2567    4035    1075    4034
CTETRA     17685       1    2567    1075    2569    1065
CTETRA     17686       1    1057    3142    2568    4029
CTETRA     17687       1    2495    2659    1536    3059
CTETRA     17688       1    2569    2567    1065    2568
CTETRA     17689       1    2566    2568    3133    3144
CTETRA     17690       1     647    4419    4427    4420
CTETRA     17691       1    1934     664    5269    5268
CTETRA     17692       1    2568    2570    3170    2571
CTETRA     17693       1    2109    2334    3425    3423
CTETRA     17694       1      13    1145    1144      18
CTETRA     17695       1    2568    2571    3132    3131
CTETRA     17696       1    3057    1179    2819    1182
CTETRA     17697       1     424    1934     652     818
CTETRA     17698       1    3057    1182    3504    3486
CTETRA     17699       1    1177    1179    2972    2514
CTETRA     17700       1     548    3006    2080     998
CTETRA     17701       1    1463    1842    1868    4701
CTETRA     17702       1    2519    4675    4477    4478
CTETRA     17703       1    1935    4895    4956    4836
CTETRA     17704       1    2397    2514    2972    2991
CTETRA     17705       1    1085    1179    1178    1182
CTETRA     17706       1    3091    2514    1179    3541
CTETRA     17707       1    2790    4115    4114    4122
CTETRA     17708       1     914    2433    1124    4074
CTETRA     17709       1    2496    3695    3734    3726
CTETRA     17710       1    3077    4520    4509    4523
CTETRA     17711       1    2474    4895    4894    4957
CTETRA     17712       1    1934    5283     652    5284
CTETRA     17713       1    1934    5860    3361    5277
CTETRA     17714       1    1440     627    5055    5060
CTETRA     17715       1     613    2451    1853    1852
CTETRA     17716       1    1085    2680    2819    1084
CTETRA     17717       1     793    3892    2723    3872
CTETRA     17718       1    2818    1182    3057    2819
CTETRA     17719       1    3057    2819    1179    2972
CTETRA     17720       1    3790    2786    2333    3791
CTETRA     17721       1      83    3752    3751    3795
CTETRA     17722       1    2972    2992    5339    5351
CTETRA     17723       1    2972    5351    2680    2992
CTETRA     17724       1    1179    1180    3554    3541
CTETRA     17725       1    2676    4637    4638    4619
CTETRA     17726       1    3054    3599    3600    3610
CTETRA     17727       1     931    2833    1792     932
CTETRA     17728       1     897    3244    2833    3255
CTETRA     17729       1    3237    2325    3257    3256
CTETRA     17730       1    2634    1707    3256    3258
CTETRA     17731       1    2634    2833    1707    3258
CTETRA     17732       1    3038    4618    4619    4601
CTETRA     17733       1    1951    3856    3858    3663
CTETRA     17734       1     768    3603    3604     769
CTETRA     17735       1    1950    3662    3663    3764
CTETRA     17736       1    3662    3764    1950    3470
CTETRA     17737       1    2676    4637    4657    4638
CTETRA     17738       1    2833    1707    3245    1705
CTETRA     17739       1    3834    4082    4083    5738
CTETRA     17740       1     721    2663    2621    2812
CTETRA     17741       1    2669    2722    3705    2739
CTETRA     17742       1    2447    2075    1764    1792
CTETRA     17743       1    2620    4083    4076    4077
CTETRA     17744       1    2722    3676    3701    3705
CTETRA     17745       1    2558    2550    2379    4517
CTETRA     17746       1    2075    1764    1792    3954
CTETRA     17747       1     897    3958    1792    3953
CTETRA     17748       1    2498    5426    5450    5427
CTETRA     17749       1    2031    2451    2576    2149
CTETRA     17750       1    1491    3340    3349    3341
CTETRA     17751       1    3719    4207    5746    3689
CTETRA     17752       1    1792     532    3953    3956
CTETRA     17753       1    1969    3008    4222    4205
CTETRA     17754       1    1969    3714    3689    3690
CTETRA     17755       1    3008    2351    4065    4066
CTETRA     17756       1    2201    4736    2890    4682
CTETRA     17757       1     931    2833    2004    1705
CTETRA     17758       1    1792     532    3956    1764
CTETRA     17759       1    2671    4636    3088    4655
CTETRA     17760       1    2672    4618    4636    4637
CTETRA     17761       1     931    1792     532     932
CTETRA     17762       1    1190    2920    4755    2730
CTETRA     17763       1    2019    2082    5059    5062
CTETRA     17764       1    3290    3012    5062    2970
CTETRA     17765       1    2741    2058    4943    4899
CTETRA     17766       1    3012    5062    2970    2019
CTETRA     17767       1    2019    1440    5061    5063
CTETRA     17768       1    2971    2071    4303    5051
CTETRA     17769       1    2019    3012    5061    1440
CTETRA     17770       1    2474    4894    4949    4957
CTETRA     17771       1    1935    4956    4957    4954
CTETRA     17772       1    3095    4949    4894    4893
CTETRA     17773       1    2846    2596    2595    4492
CTETRA     17774       1     977    2606    2609    2974
CTETRA     17775       1    2799    5397    1967    2770
CTETRA     17776       1    2846    2595    4597    4492
CTETRA     17777       1    2814    4952    4949    4893
CTETRA     17778       1     700    2788    2594    2564
CTETRA     17779       1    2735    5177    2081     410
CTETRA     17780       1    2970    5058    3290    3293
CTETRA     17781       1    2814    4952    1881    4949
CTETRA     17782       1    2474    4949    4953    4957
CTETRA     17783       1    1808    2544    3021    2373
CTETRA     17784       1    3021    2373    5181    2378
CTETRA     17785       1     109     410    2536     409
CTETRA     17786       1     366    4895    4475    4474
CTETRA     17787       1    2971    5051    5831    4904
CTETRA     17788       1    2340    2930    3390    3392
CTETRA     17789       1    1324    2341    2811    2340
CTETRA     17790       1    2340    2341    3391    3389
CTETRA     17791       1    2971    2858    4999    4904
CTETRA     17792       1    2971    5831    5051    4303
CTETRA     17793       1    1668    4328    4326    4320
CTETRA     17794       1    3097    4404    2340    2605
CTETRA     17795       1     664    5293    5296    3402
CTETRA     17796       1    2602    2958    1914    2500
CTETRA     17797       1    2684    2083    3921    3920
CTETRA     17798       1    3406     633    3408     663
CTETRA     17799       1     612    1521    2493    1398
CTETRA     17800       1    1914    3405     663    3407
CTETRA     17801       1    2681    3896    3922    3923
CTETRA     17802       1    3026    3897    5734    4162
CTETRA     17803       1     663    3405    1592    3408
CTETRA     17804       1    3026    3924    3897    3923
CTETRA     17805       1    2602     842    2518    2500
CTETRA     17806       1    2711    3877    3896    3897
CTETRA     17807       1    2288    3468    3807    3808
CTETRA     17808       1    4618    3037    2672    4636
CTETRA     17809       1    2350    3116    2645    3117
CTETRA     17810       1     933    2369    2359    1454
CTETRA     17811       1    1114     915     913    4512
CTETRA     17812       1    1248    1246    4532    4530
CTETRA     17813       1    3049    3027    3099    3870
CTETRA     17814       1    2208    2031    2451    2741
CTETRA     17815       1    4518    5793    5794    4097
CTETRA     17816       1    1514     933    2359    1516
CTETRA     17817       1    2084     889     933     890
CTETRA     17818       1    2576    2451    4917    2149
CTETRA     17819       1    1256    2361    1116    4172
CTETRA     17820       1    1260    1276     526    1118
CTETRA     17821       1    2617    4093    4103    4077
CTETRA     17822       1    2875    4124    1118    4125
CTETRA     17823       1    1118    4166    1117    2440
CTETRA     17824       1    1276     320    1118    1260
CTETRA     17825       1    3053    3492    3491    3519
CTETRA     17826       1    2694    3519    3517    3518
CTETRA     17827       1    4825    5397    5873    4821
CTETRA     17828       1    1647    3672    3706    3695
CTETRA     17829       1    1695    4532    4533    4531
CTETRA     17830       1    2497    3706    3708    3694
CTETRA     17831       1    1647    3672    3695    3671
CTETRA     17832       1    2580    1284    1338    3679
CTETRA     17833       1    1298    1599    4185    1600
CTETRA     17834       1     570    2854    1023    2130
CTETRA     17835       1    2684    2438    3874    2439
CTETRA     17836       1    2732    4122    4121    4120
CTETRA     17837       1    1298    2580    1599    1334
CTETRA     17838       1    2062    3836    3827    3828
CTETRA     17839       1    2732    4121    4122    4113
CTETRA     17840       1    2872    1244    3757    1599
CTETRA     17841       1    2011    3086    2010    1132
CTETRA     17842       1    1298    2580    4185    1599
CTETRA     17843       1    1301    2469    1300    4211
CTETRA     17844       1    1301    2469    4211    4210
CTETRA     17845       1    2300    2301    4573    2302
CTETRA     17846       1    2659    3079    2301    4501
CTETRA     17847       1    5917    4726    5891    5833
CTETRA     17848       1    2658     744     879    2941
CTETRA     17849       1    1410    1412    5274    1411
CTETRA     17850       1    1816    4195    3051    4191
CTETRA     17851       1    1046    1058     947    2131
CTETRA     17852       1    1440    5063    5055    5056
CTETRA     17853       1    2884     364    3805    2330
CTETRA     17854       1    3084    3974    3965    3966
CTETRA     17855       1    2455    5104    5113    5103
CTETRA     17856       1    2032    2799     563    1866
CTETRA     17857       1    1409    1410    1882    2362
CTETRA     17858       1    1304    2441    1410    1412
CTETRA     17859       1    1048    1835     947    1058
CTETRA     17860       1    2799    5405    2770     563
CTETRA     17861       1    1882    5270    1410    5272
CTETRA     17862       1    1410    1412    5271    5274
CTETRA     17863       1    1409    1410    2362    1411
CTETRA     17864       1    2456    5108    5113    5110
CTETRA     17865       1    3084    2927    3966    3965
CTETRA     17866       1    1882    4719    1305    1406
CTETRA     17867       1    2027    3297    2104    3301
CTETRA     17868       1    2868    5056    5057    5061
CTETRA     17869       1    1305    1406    4719    4717
CTETRA     17870       1    2661    5798    4060    4502
CTETRA     17871       1    1537    2729    3058    3059
CTETRA     17872       1    1304    2441    1306    1410
CTETRA     17873       1    2661    4060    4194    4192
CTETRA     17874       1    1323     937     936     644
CTETRA     17875       1    2112    1973    4727    2519
CTETRA     17876       1     952    2477     970    2637
CTETRA     17877       1    3591    5851    3589    5341
CTETRA     17878       1    2514    3591    2991    1389
CTETRA     17879       1    2514    1389    3584    3591
CTETRA     17880       1    1179    3554    1180    1178
CTETRA     17881       1    1085    3056    2972    2680
CTETRA     17882       1    2799    1371    1967    4821
CTETRA     17883       1    2413    4714    1407    4711
CTETRA     17884       1    2111    4477    4850    4478
CTETRA     17885       1    2398    3023    2514    1389
CTETRA     17886       1    2514    3023    3542    3584
CTETRA     17887       1     506    3610    3606    3599
CTETRA     17888       1    1310    1725    2803    2615
CTETRA     17889       1    2444    4754    4772    4755
CTETRA     17890       1    2398    1177    2514    1180
CTETRA     17891       1    2078     492    1208    2842
CTETRA     17892       1    2916    3610    3611    3605
CTETRA     17893       1    3068    3807    2885    3815
CTETRA     17894       1    1819    2540    2459    1820
CTETRA     17895       1    2514    1180    3542    3023
CTETRA     17896       1    1253    2785    4235    4279
CTETRA     17897       1    1250     801    2967    4551
CTETRA     17898       1    2726    4543    4481    4482
CTETRA     17899       1    2989    4548    4483    4539
CTETRA     17900       1    2496    3734    3695    3694
CTETRA     17901       1    5017    2371    4884    4885
CTETRA     17902       1    1253    3528    3527    1545
CTETRA     17903       1    1253    1545    1254    3528
CTETRA     17904       1    2291    5012    5032    5033
CTETRA     17905       1    2799    1371    4821    4823
CTETRA     17906       1    2726    4543    4545    4481
CTETRA     17907       1    2785    2906    4235    4236
CTETRA     17908       1    3019    4547    4543    4548
CTETRA     17909       1    2793    2790    4122    4123
CTETRA     17910       1    2011    1295    2010    3086
CTETRA     17911       1     121    3088    2671    2672
CTETRA     17912       1    2692    3851    2882    3819
CTETRA     17913       1    1243    1255    1253    1229
CTETRA     17914       1    1253    1229    4279    4278
CTETRA     17915       1    2293    2290    5117    5116
CTETRA     17916       1     490    5854    3594    2270
CTETRA     17917       1    1203    2602    2518    2500
CTETRA     17918       1    1863    2762    2848    2795
CTETRA     17919       1    5227    2275    5232    2836
CTETRA     17920       1    4410    5817    4867    5818
CTETRA     17921       1     493    1208    2078     492
CTETRA     17922       1    2842    1862    2078    2836
CTETRA     17923       1     492    5223    2842    5228
CTETRA     17924       1    4431    4434    4854    5814
CTETRA     17925       1    2964    1825    3666    2914
CTETRA     17926       1    3995     271    1747    1745
CTETRA     17927       1    2414    2483    2931    3472
CTETRA     17928       1     461    1980    2964    1825
CTETRA     17929       1    3088    4617    4636    3037
CTETRA     17930       1     492    1208    2842    5223
CTETRA     17931       1    4464    3078    2847    4463
CTETRA     17932       1    2288    3840    3068    2629
CTETRA     17933       1    2532    2958    3397    3398
CTETRA     17934       1    3002    3840    3816    3857
CTETRA     17935       1    2532    2958    1947    2500
CTETRA     17936       1    1946    2117    2808    3399
CTETRA     17937       1    2532    1946    1388    1947
CTETRA     17938       1    1945    1946      17    1947
CTETRA     17939       1    1224    4014    1039    4013
CTETRA     17940       1    1298    1832    1599    1600
CTETRA     17941       1    1036    3998    4004    3999
CTETRA     17942       1    1244    4185    1600    4184
CTETRA     17943       1    4184    1615    1600    1244
CTETRA     17944       1    2799    1371    4823    2032
CTETRA     17945       1    1095    3929    3902    3901
CTETRA     17946       1     760    2827    4989    4967
CTETRA     17947       1    1253    2906    4250    4235
CTETRA     17948       1    3098    4992    5044    4993
CTETRA     17949       1    4973    2161    4982    4978
CTETRA     17950       1    3484    1253    4235    4278
CTETRA     17951       1     978    2873    2693    3080
CTETRA     17952       1    2873    2123    2871    2872
CTETRA     17953       1    2896    3276    3066    5112
CTETRA     17954       1    2426    4111    4112    4095
CTETRA     17955       1    1136    2728    2169    4572
CTETRA     17956       1    2896    3249    3066    3276
CTETRA     17957       1    2401    4095    4527    5796
CTETRA     17958       1    2186    4217    4218     744
CTETRA     17959       1    2829    1222    3217    3234
CTETRA     17960       1    2719    5109    3009    5108
CTETRA     17961       1    1204    2896    2888    3066
CTETRA     17962       1    1204    2896    2436    1821
CTETRA     17963       1    2896    1821    2888    3253
CTETRA     17964       1    2896    2888    3249    3253
CTETRA     17965       1    1253    2785    4279    1229
CTETRA     17966       1    2089    4341    4334    2394
CTETRA     17967       1     296     529    2193     293
CTETRA     17968       1    2231    2087    2394    2230
CTETRA     17969       1    1132    1287    2185    3938
CTETRA     17970       1    1901    3926    3934    3927
CTETRA     17971       1    2318    2394    2655    3351
CTETRA     17972       1    2191    2000     484     485
CTETRA     17973       1     374     627     373    5053
CTETRA     17974       1    2085    2089    2394    2087
CTETRA     17975       1    2231    2655    2653    2577
CTETRA     17976       1    2231    2230    2318    2320
CTETRA     17977       1    3526    1253    4235    3484
CTETRA     17978       1    4333    2394    3351    4334
CTETRA     17979       1     375    5090    2651    5086
CTETRA     17980       1    2394    2087    4354    2230
CTETRA     17981       1    2654    3269    3268    3243
CTETRA     17982       1    1327    2686    4604    2575
CTETRA     17983       1    2394    2230    4354    4340
CTETRA     17984       1    2719    2868    5109    5112
CTETRA     17985       1    2719    5111    2896    5112
CTETRA     17986       1    3088    4617    4635    4636
CTETRA     17987       1    2719    2896    3066    5112
CTETRA     17988       1    2431    5708    5709    5596
CTETRA     17989       1    1875    2340    2930    1319
CTETRA     17990       1    1930    5611    1527    2044
CTETRA     17991       1     572    4028     581    4027
CTETRA     17992       1    1688    4856    4862    4863
CTETRA     17993       1    2953    5710    3384    3385
CTETRA     17994       1      66    4398    4405    4406
CTETRA     17995       1    2429    1229    1253    1255
CTETRA     17996       1    1687    4842    4843    4856
CTETRA     17997       1    2307    3181    3173    3172
CTETRA     17998       1    3066    3248    2888    1206
CTETRA     17999       1    3066    3249    2888    3248
CTETRA     18000       1    4039    3141    4052    5645
CTETRA     18001       1    2824    4039    5644    3140
CTETRA     18002       1    2568    2570    3133    3170
CTETRA     18003       1    2116    5308    5286    1973
CTETRA     18004       1    3066    2040    3277    3275
CTETRA     18005       1    1857    5307    5308    5834
CTETRA     18006       1    2112    2922    4724    4725
CTETRA     18007       1    2511    2896    2718    5111
CTETRA     18008       1    1339    1530    4226    4225
CTETRA     18009       1    2926    4298    2562    4306
CTETRA     18010       1    1758    1339    1299    1283
CTETRA     18011       1    1301    4211    1300    4200
CTETRA     18012       1    1533    4227    2469    1530
CTETRA     18013       1    3621    3618    5276    5858
CTETRA     18014       1    2469    4227    3014    4211
CTETRA     18015       1    2776    1542    5242    5248
CTETRA     18016       1    1048    2637    2776    2475
CTETRA     18017       1    1243    1253    3513    3484
CTETRA     18018       1      80    1345    2284    2153
CTETRA     18019       1    3004    3559    3491    3490
CTETRA     18020       1    3036    5744    3713    4067
CTETRA     18021       1    2865    2475    4762    1292
CTETRA     18022       1     366    4474    4475    4678
CTETRA     18023       1     444    3654    3629    3628
CTETRA     18024       1    2952    3354    5727    3658
CTETRA     18025       1    1673    5247    1674    5244
CTETRA     18026       1    1945    2117    2810    2334
CTETRA     18027       1    3048    4679    4473    4474
CTETRA     18028       1    1145    3432    3427    3431
CTETRA     18029       1    2865    2475    4760    4762
CTETRA     18030       1    3042    2317    1188    4865
CTETRA     18031       1    2945    4895    4836    4475
CTETRA     18032       1    1935    4895    4957    4956
CTETRA     18033       1     913    4510     915    1895
CTETRA     18034       1    3042    4424    4859    4865
CTETRA     18035       1    1188    2317    2316    4860
CTETRA     18036       1    1123     719    1159    4072
CTETRA     18037       1    2558    2551    4099    2557
CTETRA     18038       1    2829    3226    2823    3216
CTETRA     18039       1    1162    4514    5791    4075
CTETRA     18040       1    1533    4229    4227    4234
CTETRA     18041       1    1215    1312    1219     774
CTETRA     18042       1     521    1910     514     540
CTETRA     18043       1    4535     911    4536    4499
CTETRA     18044       1    3036    3690     997    3711
CTETRA     18045       1    2723    3872    3892    3873
CTETRA     18046       1    3072    5027    5006    5026
CTETRA     18047       1    3042    2481    4431    4423
CTETRA     18048       1      67    1604     519      66
CTETRA     18049       1    3048    4473    4680    4472
CTETRA     18050       1    1915    2579    2316    1413
CTETRA     18051       1    1298    1284    2580    1334
CTETRA     18052       1    2442    1640    1936     429
CTETRA     18053       1    3036    1969    4205    3008
CTETRA     18054       1    3048    4679    4680    4473
CTETRA     18055       1    2976    4881    4461    4460
CTETRA     18056       1    3025    4453    4874    4454
CTETRA     18057       1    2687    3976    2772    3910
CTETRA     18058       1    1334    3767    1335    1336
CTETRA     18059       1    2468    1601    5031    2289
CTETRA     18060       1    1250    1251    4550    4494
CTETRA     18061       1    1334    1335    3767    3755
CTETRA     18062       1    2580    1284    3679    3744
CTETRA     18063       1    1333    1334    1336    1284
CTETRA     18064       1    1986    4879    5011    5012
CTETRA     18065       1    2439    3874    3894    3875
CTETRA     18066       1    2438    3874    3873    3893
CTETRA     18067       1     719    4178    4071    4177
CTETRA     18068       1    3036    3714    3713    5744
CTETRA     18069       1    4902    2165    2858    2168
CTETRA     18070       1     606    2576    2165    1679
CTETRA     18071       1    2962    3036    2352    3082
CTETRA     18072       1    2438    3874    3829    3873
CTETRA     18073       1    2702    5006    5005    5026
CTETRA     18074       1    3037    4617    4464    4465
CTETRA     18075       1    2962    3036    3711    3713
CTETRA     18076       1    1788    2366    3322    3333
CTETRA     18077       1    2499    1788    2366    3322
CTETRA     18078       1    1788    3333     204    2366
CTETRA     18079       1    2934    3895    2683    3896
CTETRA     18080       1    1788    5445    1494    1787
CTETRA     18081       1    1123    4071    4092    4093
CTETRA     18082       1    5421    3328    3330    1788
CTETRA     18083       1    2711    4158    3877    5735
CTETRA     18084       1    2439    3876    3875    3895
CTETRA     18085       1    1118    4166    2440    4125
CTETRA     18086       1    2212    3043    2875     524
CTETRA     18087       1     923    1769    3043    2996
CTETRA     18088       1    2875    3043    2710     526
CTETRA     18089       1     524    2212    5195    5020
CTETRA     18090       1    2605    4406    4405    4413
CTETRA     18091       1    2340    3391    4411    4404
CTETRA     18092       1    2427    4412    4419    4420
CTETRA     18093       1    1072    2550    1895    2549
CTETRA     18094       1    1071    2549    1895    3077
CTETRA     18095       1    1969    1970    4207    4206
CTETRA     18096       1    1162    2558    2551    4099
CTETRA     18097       1    3043    2710    2996    4138
CTETRA     18098       1    1250    4495     576    1246
CTETRA     18099       1     238    1233    3027    3049
CTETRA     18100       1    2710    2440    2996    4126
CTETRA     18101       1    2643    3675    3837    3676
CTETRA     18102       1    4508    5794    5795    4096
CTETRA     18103       1    2379    4518    5793    4517
CTETRA     18104       1    2710    4126    2996    4138
CTETRA     18105       1    2162    3448    2157    3447
CTETRA     18106       1    2156    2926    2086    2162
CTETRA     18107       1    1162    2558    4511    1895
CTETRA     18108       1    2162    2156    3447    2157
CTETRA     18109       1     195    2157    2162    2963
CTETRA     18110       1    2828    3678    3702    3677
CTETRA     18111       1    2580    4199    1338    1301
CTETRA     18112       1    2251    2386    2669    2670
CTETRA     18113       1    2265    2353    2530    2389
CTETRA     18114       1    3707    3673    2768    3674
CTETRA     18115       1    1600    1832    1244    1615
CTETRA     18116       1    1832    1335    1334    2872
CTETRA     18117       1     384    2943    2345    4505
CTETRA     18118       1    1616     878      70    2732
CTETRA     18119       1     606     610    2576    1680
CTETRA     18120       1    4325    4927    5827    5826
CTETRA     18121       1    1600    4185    1300    4201
CTETRA     18122       1    1600    1827    4184    4202
CTETRA     18123       1    2087    4354    4351    4349
CTETRA     18124       1    1679    4323    4322    4347
CTETRA     18125       1    2149    4918    4926    4925
CTETRA     18126       1    1795     586    5710    1320
CTETRA     18127       1    2088    4349    4350    4343
CTETRA     18128       1    4924    2148    4926    4927
CTETRA     18129       1    1520    1710    2115    1512
CTETRA     18130       1    1253    1255    3513    1254
CTETRA     18131       1    2101    1497    2327    1547
CTETRA     18132       1    2576    2168    4921    2177
CTETRA     18133       1    1594    1546    2906    1545
CTETRA     18134       1     630    1678    2228    1294
CTETRA     18135       1     816    2885    2330    2884
CTETRA     18136       1    1464    1551    2937    1803
CTETRA     18137       1    2920    4747    4754    4748
CTETRA     18138       1    3526    1253    3528    3527
CTETRA     18139       1    3009    5101    5108    5109
CTETRA     18140       1    2815    4929    4928     592
CTETRA     18141       1    2040    3273    1206    2883
CTETRA     18142       1    2868    5056    5101    5109
CTETRA     18143       1    3009    5101    5100    5108
CTETRA     18144       1    2896    2888    3066    3249
CTETRA     18145       1    2455    2526    5103    2717
CTETRA     18146       1    1545    1254    3525    2358
CTETRA     18147       1    1125    4092    4102    4103
CTETRA     18148       1    2722    3676    3705    3675
CTETRA     18149       1    1545    2358    3525    3524
CTETRA     18150       1    2426    5795    4508    4527
CTETRA     18151       1    2529    2947    2265    2736
CTETRA     18152       1    2576    1680    1679     606
CTETRA     18153       1     613    2031    2137    2149
CTETRA     18154       1    1400    4321    4345    4346
CTETRA     18155       1    1853    2149    4925    4918
CTETRA     18156       1    2165    2858    4919    4903
CTETRA     18157       1    1853    2149    4369    4925
CTETRA     18158       1    1144     280    1147    1146
CTETRA     18159       1    2206    1869    2205    4373
CTETRA     18160       1    1451    2684    3920    2083
CTETRA     18161       1     613    2137    4295    2149
CTETRA     18162       1    2064    3838    3826    3827
CTETRA     18163       1    4368    2206    4295    4369
CTETRA     18164       1    2312     873    1910    2311
CTETRA     18165       1     515    1910    2597    2041
CTETRA     18166       1    2597    3366    1210    3367
CTETRA     18167       1    1099    3683    3729    3682
CTETRA     18168       1    1028    1063    1017    1066
CTETRA     18169       1    1969    2443    4206    4222
CTETRA     18170       1    2597    2260    1796    3373
CTETRA     18171       1    2597    2260    3373    3372
CTETRA     18172       1    1969    3714    4205    5745
CTETRA     18173       1    2597    3373    1210    3366
CTETRA     18174       1    2556    2558    2379    2557
CTETRA     18175       1    2597     515    1210    1796
CTETRA     18176       1    2494    3726    3727    3670
CTETRA     18177       1    1732    2170    2172    1353
CTETRA     18178       1    1472    3734    3736    3726
CTETRA     18179       1    2357    4528    4537    4529
CTETRA     18180       1    2390    3694    3733    3734
CTETRA     18181       1    1914    2958    3405    3397
CTETRA     18182       1    1914    2500    2532    5295
CTETRA     18183       1    2390    3694    3693    3733
CTETRA     18184       1    3034    4529    4504    4533
CTETRA     18185       1    2379    4518    4517    4519
CTETRA     18186       1    1203    1947    2602    2500
CTETRA     18187       1     842    5293    5296     664
CTETRA     18188       1    2958    1592    3415    2808
CTETRA     18189       1    1076    2740    2555    2553
CTETRA     18190       1    4503    4533    3033    4504
CTETRA     18191       1    2958    2808    3415    3398
CTETRA     18192       1    1141    2497     549    2766
CTETRA     18193       1     877    2302     911    2173
CTETRA     18194       1    1472    3734    3022    3736
CTETRA     18195       1    2357    4528    4529    4533
CTETRA     18196       1    4498    4574    4497    2912
CTETRA     18197       1    2357    2912     383    4537
CTETRA     18198       1    2786    3796    2701    3791
CTETRA     18199       1    4110    4109    1812    4121
CTETRA     18200       1    2362    1411    5264     624
CTETRA     18201       1    2426    2787    4527    4524
CTETRA     18202       1    1514     933    2645    2350
CTETRA     18203       1    3707    1649    3706    2368
CTETRA     18204       1    2362    1411    5270    5264
CTETRA     18205       1    2040    5061    3012    1440
CTETRA     18206       1    2040    3278    3012    3266
CTETRA     18207       1    2062    3838    3836    3674
CTETRA     18208       1    2644    3836    3675    3674
CTETRA     18209       1     715    2437    2834    3067
CTETRA     18210       1    4513    4510    1158     915
CTETRA     18211       1    2643    3676    3837    3833
CTETRA     18212       1    2393    1374    1366    1375
CTETRA     18213       1    1752    2365    3338    3324
CTETRA     18214       1    5413    3314    5414    1375
CTETRA     18215       1     562    1866     563    4826
CTETRA     18216       1    2393    3314    1375    1752
CTETRA     18217       1    1752    3314    3312    2393
CTETRA     18218       1    1969    3719    3689    4207
CTETRA     18219       1    3036    4205    1969    3714
CTETRA     18220       1    1969    3689    4206    4207
CTETRA     18221       1    3076    4208    3718    3719
CTETRA     18222       1    2547    4063    4219    4220
CTETRA     18223       1    3749    3748    2758    2701
CTETRA     18224       1    2393    1752    3074    3312
CTETRA     18225       1    1752    3074    3338    2365
CTETRA     18226       1    1969    3689    3714    5745
CTETRA     18227       1    2301    2728    4584    4573
CTETRA     18228       1    1537    3058    1817    3059
CTETRA     18229       1    3306    1752    1375    3314
CTETRA     18230       1    2080    2443    1969    3008
CTETRA     18231       1    2655    2164    3445    3443
CTETRA     18232       1    2655    2653    3352    3445
CTETRA     18233       1    3000    3834    3678    3835
CTETRA     18234       1    1518    2577    2231    2653
CTETRA     18235       1    4344    2088    1682    1401
CTETRA     18236       1    2670    2669    2722    3701
CTETRA     18237       1    3067    3835    3833    3830
CTETRA     18238       1    2231    2085    2394    2087
CTETRA     18239       1    3870    3049    2060    3030
CTETRA     18240       1    2385    3701    3700    3704
CTETRA     18241       1    1950    3663    3662    3856
CTETRA     18242       1    2970     151     152    2573
CTETRA     18243       1    3038    4601    4600    4618
CTETRA     18244       1    3037    4600    4617    4618
CTETRA     18245       1    2631    3662    3808    3856
CTETRA     18246       1    2629    3808    3840    3856
CTETRA     18247       1    2969    5058    2082    2970
CTETRA     18248       1    2969    2970    3293    5058
CTETRA     18249       1    2492    3726    2494    3671
CTETRA     18250       1    2370    4108    4119    4120
CTETRA     18251       1    2433    1895     913     912
CTETRA     18252       1    2558    4511    5792    4088
CTETRA     18253       1    2082    2970    5058    5062
CTETRA     18254       1     153    3012     158    2970
CTETRA     18255       1    2969    5070    2082    5058
CTETRA     18256       1     544    3945    3944    3975
CTETRA     18257       1    1287    3971    3969    3946
CTETRA     18258       1    3042    4424    4431    4859
CTETRA     18259       1    2082    5072     626    5059
CTETRA     18260       1     958     982    2905     943
CTETRA     18261       1    2840     943    3455    3434
CTETRA     18262       1    4408     140    4415    1604
CTETRA     18263       1     515    1910    1796    2597
CTETRA     18264       1    2349    5481    2960    5482
CTETRA     18265       1    1991    3259    3260    3270
CTETRA     18266       1    2192    3285    2029    2528
CTETRA     18267       1    2192    3259    3455    3283
CTETRA     18268       1    2365    3323    3336    3338
CTETRA     18269       1    1373    2269    2099    2392
CTETRA     18270       1    5482    2392    5506    2960
CTETRA     18271       1    2192    2528    3260    3285
CTETRA     18272       1     931    1999    2033    1993
CTETRA     18273       1     897     932    2654    3960
CTETRA     18274       1    3036    1969    3690    3714
CTETRA     18275       1    1329    2981    2985    2756
CTETRA     18276       1    1152    5080    5089    5037
CTETRA     18277       1    2654    3268    2004    3243
CTETRA     18278       1    2833    2004    1705    3244
CTETRA     18279       1    2004    1705    3272    2005
CTETRA     18280       1     931    2004    1993    2005
CTETRA     18281       1    2969     477    5070    5071
CTETRA     18282       1     932    3953     532    3957
CTETRA     18283       1    2566    2567    1719    1720
CTETRA     18284       1    1057     776    2568    3131
CTETRA     18285       1    3000    2834    3835    3678
CTETRA     18286       1    2566    2824    1719    4037
CTETRA     18287       1    2681    3922    2683    2359
CTETRA     18288       1    4082    3832    5737    3834
CTETRA     18289       1    2567    4038    1719    1580
CTETRA     18290       1    5738    3834    3678    4083
CTETRA     18291       1    1599    3756    5751    4281
CTETRA     18292       1    1334    2872    1335    3755
CTETRA     18293       1    1244    4282    4281    4280
CTETRA     18294       1    1254    2358    2424    3515
CTETRA     18295       1    1719    1580    4041    1582
CTETRA     18296       1    1719    1580    4038    4041
CTETRA     18297       1    1244    4184    4280    4185
CTETRA     18298       1    1334    3755    3767    3744
CTETRA     18299       1    1353    4566    4565    4571
CTETRA     18300       1    2711    3896    2934    2681
CTETRA     18301       1    2912    4574    4497    2171
CTETRA     18302       1    2759    3750    3749    3796
CTETRA     18303       1    2472    4588    4589    4483
CTETRA     18304       1    2566    3138    2824    4037
CTETRA     18305       1    3016    3877    3832    3876
CTETRA     18306       1    2129    1452    2870    3919
CTETRA     18307       1    2566    1719    4038    4037
CTETRA     18308       1    2386    4078    2616    4104
CTETRA     18309       1    5293     842     817     664
CTETRA     18310       1     716    2620    2834    2621
CTETRA     18311       1    2824    1720    3134    3138
CTETRA     18312       1    1720    3171    2570    2572
CTETRA     18313       1     162    2868    1522    3009
CTETRA     18314       1     348    1350     213    1346
CTETRA     18315       1    2728    1614    1216    2169
CTETRA     18316       1    2019    5061    3012    5062
CTETRA     18317       1    2868    5061    2040    1440
CTETRA     18318       1    1734    4855    4844    5821
CTETRA     18319       1    2164    2869    3445    5717
CTETRA     18320       1    3005    4524    4507    4534
CTETRA     18321       1    2497    2766    2390    3693
CTETRA     18322       1    2019    5059     626    5060
CTETRA     18323       1    2660    5797    4526    4502
CTETRA     18324       1     160    2040    3012    1440
CTETRA     18325       1    4526    5796    5797    4094
CTETRA     18326       1    2941    2909    4111    4110
CTETRA     18327       1    3089    4463    4600    4585
CTETRA     18328       1    2019    5060    1440    5063
CTETRA     18329       1    2699    2880    2488    3817
CTETRA     18330       1    2371    4884    4885    4464
CTETRA     18331       1    3000    3832    3834    3831
CTETRA     18332       1    2621    4069    2867    2812
CTETRA     18333       1    2019     153    1440     626
CTETRA     18334       1    2834    2437    3831    3830
CTETRA     18335       1    2828    3677    2990    3678
CTETRA     18336       1    3012    3278    2883    3274
CTETRA     18337       1    3012    3274    2883     158
CTETRA     18338       1    1967    2771    5315    5316
CTETRA     18339       1    1914     664    3402     663
CTETRA     18340       1    2574    4485    4590    4591
CTETRA     18341       1    3024    2967    4554     576
CTETRA     18342       1    1370    1386    1967    1371
CTETRA     18343       1    2574    4590    4606    4591
CTETRA     18344       1    2892    4485    4484    4590
CTETRA     18345       1    3041    4565    4577    4571
CTETRA     18346       1    1914     663    3402    3407
CTETRA     18347       1    1370    2770    2771    2417
CTETRA     18348       1    2770    5315    2417    5314
CTETRA     18349       1    1914     664     663     842
CTETRA     18350       1    1014    1590    1015    1029
CTETRA     18351       1      36      34    4064    4065
CTETRA     18352       1    3093    4879    5012    4880
CTETRA     18353       1    2770    2560    5314    2417
CTETRA     18354       1     650    2283     651    5220
CTETRA     18355       1     663     425     817     633
CTETRA     18356       1     271    1747    3976    3995
CTETRA     18357       1    2772    3976    1382    3911
CTETRA     18358       1    1861    2282    2795    2848
CTETRA     18359       1     801    2967    4551    2987
CTETRA     18360       1    2282    2807    5226    5230
CTETRA     18361       1    2556    2550    2943    2789
CTETRA     18362       1    1050     651    2283    1053
CTETRA     18363       1    2283    2864    1053    5237
CTETRA     18364       1    2283    5219     651    5220
CTETRA     18365       1    2283    1053    5219    5237
CTETRA     18366       1    2379    4517    5793    4098
CTETRA     18367       1    2345    4538    4505    4529
CTETRA     18368       1    2731    4518    4507    4508
CTETRA     18369       1     921    1513    1492    1486
CTETRA     18370       1     930     925    1485    1484
CTETRA     18371       1    1492    3119    2645    1391
CTETRA     18372       1    2986    4548    4546    4547
CTETRA     18373       1    1818    1492    4153    1484
CTETRA     18374       1    3093    4459    4879    4880
CTETRA     18375       1    3092    4458    4878    4879
CTETRA     18376       1    1766    1818    3128    4147
CTETRA     18377       1    2943    3013    2345    4505
CTETRA     18378       1    2549    4516    4520    4521
CTETRA     18379       1    4198    4189    4188    2581
CTETRA     18380       1    1492    3119     645    3122
CTETRA     18381       1    4521    3013    2549    4516
CTETRA     18382       1    2368    1649    3706    2497
CTETRA     18383       1     948    1499    1495    1497
CTETRA     18384       1     553    2529    2531    2767
CTETRA     18385       1    1250    4552     576    4495
CTETRA     18386       1    4538    4535     383     384
CTETRA     18387       1    1593    1495    3540    4252
CTETRA     18388       1    2302    2300    4499    4573
CTETRA     18389       1    2401    2941    2909    4111
CTETRA     18390       1     664     722    3404    3403
CTETRA     18391       1    2429    1255    2871    1229
CTETRA     18392       1    1564    4252    4251    4255
CTETRA     18393       1    1801    1889     950    1577
CTETRA     18394       1    1549    1550    4257    4254
CTETRA     18395       1    2300    4499    4500    4536
CTETRA     18396       1     382     383    2357    2912
CTETRA     18397       1    4535    4534     384    4538
CTETRA     18398       1    1537    2495    1536    3059
CTETRA     18399       1     926    1769     925     923
CTETRA     18400       1    1769     926    2996     923
CTETRA     18401       1    2875    2710    3043    4139
CTETRA     18402       1    1607    2733    1617     880
CTETRA     18403       1     664    5861    5293    3402
CTETRA     18404       1    1450     933     921    2681
CTETRA     18405       1    2212    1780    5204    4141
CTETRA     18406       1     925    1769    1770    2542
CTETRA     18407       1     299    3013     307     308
CTETRA     18408       1    2789    4507    4519    4506
CTETRA     18409       1     384    4534    4506    4538
CTETRA     18410       1     384    4538    4506    4505
CTETRA     18411       1    1769    4143    1770    4146
CTETRA     18412       1    2950    2212    3043    1769
CTETRA     18413       1    4057    3118    2369    4058
CTETRA     18414       1    2799     563    5399    5398
CTETRA     18415       1     563     562    5399    5409
CTETRA     18416       1     810     726    2355    2699
CTETRA     18417       1     562    1505    1867     563
CTETRA     18418       1    1728    2839    2538    3624
CTETRA     18419       1    1834    1369    1370    1885
CTETRA     18420       1    2475    4762    4751    4760
CTETRA     18421       1     563    2559    5404    2560
CTETRA     18422       1     563    5404    2559    5409
CTETRA     18423       1    1294    4759    4768    4774
CTETRA     18424       1    1055    5239    5255    5242
CTETRA     18425       1    2986    4546    4548    4539
CTETRA     18426       1    1233    3839    3672    3841
CTETRA     18427       1    2804    2875    1118    1260
CTETRA     18428       1    2379    2790    2557    4114
CTETRA     18429       1    2206    4370    4914    4915
CTETRA     18430       1    1598    4457    4456    4877
CTETRA     18431       1    2681    2359    1833     933
CTETRA     18432       1    1854    1852    4906    2860
CTETRA     18433       1    2804    2875    4124    1118
CTETRA     18434       1    2294    3688    2295    3668
CTETRA     18435       1    3033    4453    4503    4522
CTETRA     18436       1    1854    1734    1687    4844
CTETRA     18437       1    2894    4544    4549    4459
CTETRA     18438       1    3079    4525    2787    2300
CTETRA     18439       1    1854    1852    4913    4906
CTETRA     18440       1    2426    2787    4524    3005
CTETRA     18441       1      54    1216    1537    1614
CTETRA     18442       1    1629    1103    2758    1101
CTETRA     18443       1    5167    2535    5173    2081
CTETRA     18444       1    2537    3182    2307    2841
CTETRA     18445       1    2437    3831    3830    3875
CTETRA     18446       1    2437    2438    3874    3829
CTETRA     18447       1    2734    3177    2537    5168
CTETRA     18448       1    2081    2535    5173    2537
CTETRA     18449       1    2438    2061    2437     715
CTETRA     18450       1    3074    3337    3308    3338
CTETRA     18451       1    2537    2841    3174    3182
CTETRA     18452       1     545     542    1435    2713
CTETRA     18453       1    2367    3337    3335    3309
CTETRA     18454       1      99    1805     107    1807
CTETRA     18455       1    1465    5474    5497    5498
CTETRA     18456       1    1483     163    3346    2508
CTETRA     18457       1    2365    3337    3338    3336
CTETRA     18458       1    3027    3870    3825    3869
CTETRA     18459       1    1572    2261    1905    2134
CTETRA     18460       1    5428    5427     163    5451
CTETRA     18461       1    1367    2195    5442    5441
CTETRA     18462       1    5523     598     311    1482
CTETRA     18463       1    2804    4868    5787    5000
CTETRA     18464       1    2909    2732    4112    4121
CTETRA     18465       1    1808    1805    1807    1814
CTETRA     18466       1    2401    5796    4527    4526
CTETRA     18467       1    2426    2731    4508    4096
CTETRA     18468       1    2944    3167    2310    3149
CTETRA     18469       1    3021    2378    5181    5182
CTETRA     18470       1     762    4874    4873    5006
CTETRA     18471       1    2925    5028    5160    5029
CTETRA     18472       1     409     102     542     108
CTETRA     18473       1     102     109    2378    3021
CTETRA     18474       1     206    2737     204    3345
CTETRA     18475       1     886    1455    1454    2083
CTETRA     18476       1    3016    3876    2934    3877
CTETRA     18477       1    2666    4174     861    4157
CTETRA     18478       1    1298    4185    2580    4200
CTETRA     18479       1    1787    5422    5446    5423
CTETRA     18480       1    1599    1244    4281    4185
CTETRA     18481       1    3076    5748    3717    3718
CTETRA     18482       1    1338    3717    3679    3680
CTETRA     18483       1    1283    1284    3681    3680
CTETRA     18484       1    1658    2539    1905    1877
CTETRA     18485       1    3333    3340    3339     204
CTETRA     18486       1    2976    4461    4545    4460
CTETRA     18487       1     387    2903    2297    2295
CTETRA     18488       1    3069    4545    4480    4481
CTETRA     18489       1    2804     843    5001    1260
CTETRA     18490       1    2372    2650    4466    2478
CTETRA     18491       1    2004    3268    3272    3244
CTETRA     18492       1     891     895     892     902
CTETRA     18493       1    1999    3952    3940    3962
CTETRA     18494       1    1999    3941    3940    3952
CTETRA     18495       1     927    3933    3941    3934
CTETRA     18496       1    1788    3321     204    3333
CTETRA     18497       1    2728    4572    4584    4573
CTETRA     18498       1    1256    2804     843    4868
CTETRA     18499       1    2804     843    4868    5001
CTETRA     18500       1    2850    3730    3737    3739
CTETRA     18501       1    2565    2846    4493    4561
CTETRA     18502       1    2170    4572    4576    4571
CTETRA     18503       1     106     924     100     717
CTETRA     18504       1    2970    3265     158    3264
CTETRA     18505       1    2702    5005    2553    5025
CTETRA     18506       1    1454    1455    3987    2083
CTETRA     18507       1    3264    3288    2035    2970
CTETRA     18508       1    2970    3288    2781    3291
CTETRA     18509       1    1616    2732    2426    2909
CTETRA     18510       1    2820    5329    1693    5328
CTETRA     18511       1    1960    5212    2816    5330
CTETRA     18512       1    2731    4518    5794    4097
CTETRA     18513       1    2426    4096    4508    5795
CTETRA     18514       1    2820    5328    5331    5330
CTETRA     18515       1    2934    3877    3876    3896
CTETRA     18516       1    3016    3832    5736    4068
CTETRA     18517       1    2820    2543    5317    2816
CTETRA     18518       1    2787    4536    4524    4534
CTETRA     18519       1    2300    4525    4536    4500
CTETRA     18520       1     878    1812    2547      34
CTETRA     18521       1      70    2793    2732    1812
CTETRA     18522       1    2426    2731    3005    4508
CTETRA     18523       1    1826    2820    1960    2816
CTETRA     18524       1    1616    2379    2731    2790
CTETRA     18525       1    1826    1960    1924    4790
CTETRA     18526       1     384    4534    4507    4506
CTETRA     18527       1    2683    3987    2359    3922
CTETRA     18528       1    2672    4636    4656    4637
CTETRA     18529       1    2336    2114    5835    4439
CTETRA     18530       1    2671    4636    4655    4656
CTETRA     18531       1    2977    3064    5013    4881
CTETRA     18532       1     819    2884     820    2885
CTETRA     18533       1     921     920    4129     922
CTETRA     18534       1     911    4537    4498    4535
CTETRA     18535       1    2336    1857    2112    1973
CTETRA     18536       1    3050    2565    2581    4189
CTETRA     18537       1    2503    2504    3071    2501
CTETRA     18538       1     249     258     261     262
CTETRA     18539       1    4500    2301    4573    2300
CTETRA     18540       1    2599    4441    2336    5833
CTETRA     18541       1    2705    5008    4876    4875
CTETRA     18542       1    2336    2049    4439    4440
CTETRA     18543       1    5900    2393    5458    2348
CTETRA     18544       1    2367    3337    3334    3335
CTETRA     18545       1    2349    5901    5481    5458
CTETRA     18546       1    1396    1337    1624    1191
CTETRA     18547       1    2388    1461    4831    1462
CTETRA     18548       1    2968    4545    2726    4543
CTETRA     18549       1    2725    4462    4585    4480
CTETRA     18550       1    3070    4882    4883    4462
CTETRA     18551       1    2755    3015    5123    5125
CTETRA     18552       1    2387    1627    1191    4835
CTETRA     18553       1    2865    4761    4760    4763
CTETRA     18554       1    1524    5255    5243    5242
CTETRA     18555       1    2565    4559    3052     775
CTETRA     18556       1    4679     368    2633    4711
CTETRA     18557       1    1423     255     222    1422
CTETRA     18558       1    2388    1462    4831    4814
CTETRA     18559       1    2157    3441    3444    3447
CTETRA     18560       1    2423    1843    2387    4703
CTETRA     18561       1    1669     844    2555    2740
CTETRA     18562       1    1644    2768    1649    3673
CTETRA     18563       1    2387    4833    1627    4835
CTETRA     18564       1    1618    1610    1611    1612
CTETRA     18565       1    1947    5300    1002    5303
CTETRA     18566       1    2387    1843    4814    4703
CTETRA     18567       1    1584    1343    1342     497
CTETRA     18568       1    2720    1041    3226    3225
CTETRA     18569       1    3064    4460    4880    4881
CTETRA     18570       1    3069    4545    4461    4480
CTETRA     18571       1    2319    2304    4330    3379
CTETRA     18572       1    2294    2296    3669    3668
CTETRA     18573       1    2924    4461    4462    4480
CTETRA     18574       1    2967     576    4552    4554
CTETRA     18575       1    2565    4189    3052    4193
CTETRA     18576       1    1872     839    1873    2292
CTETRA     18577       1      55     879    1637    1536
CTETRA     18578       1    2581    3050    1829    1831
CTETRA     18579       1    2304    2260    3382    2182
CTETRA     18580       1    4457    1251    1598    4494
CTETRA     18581       1    4494    4457    4456    1598
CTETRA     18582       1    1986    5011    5032    5012
CTETRA     18583       1    2311    3382    2304    2260
CTETRA     18584       1    3019    2987    2894    4547
CTETRA     18585       1    2895    4460    2968    4544
CTETRA     18586       1    3055    4462    4463    4585
CTETRA     18587       1    1518    2319    2577    2182
CTETRA     18588       1    2903     395    3850    2914
CTETRA     18589       1    2304    2182    3383    3378
CTETRA     18590       1    2859    1657    2539    1658
CTETRA     18591       1    3629     443     444    2435
CTETRA     18592       1     672    1659     227    2859
CTETRA     18593       1    2747     783    1419    5142
CTETRA     18594       1    5145    1877    1874     237
CTETRA     18595       1    3204    1657    2859    1659
CTETRA     18596       1     186    2464    2746     187
CTETRA     18597       1    2171    4496    2176     576
CTETRA     18598       1    2979    4459    4458    4879
CTETRA     18599       1    2964    1980    3665    3784
CTETRA     18600       1    1947    5300    1856    1002
CTETRA     18601       1     801    4549    4550    4458
CTETRA     18602       1    2979    4549    4458    4459
CTETRA     18603       1     211    3209    1657    3212
CTETRA     18604       1    2296    2494    3669    2704
CTETRA     18605       1    2281    2703    2278    5185
CTETRA     18606       1    1657    1659    3204    3213
CTETRA     18607       1    1542    5239    1055    5242
CTETRA     18608       1    1470    3740    3738    3736
CTETRA     18609       1    2391    3732    3741    3733
CTETRA     18610       1    2173    4498    4574    4575
CTETRA     18611       1    2776    5242    1524    5249
CTETRA     18612       1    1617    1472    2496    3022
CTETRA     18613       1     911    4534    4535    4536
CTETRA     18614       1    2767    2368    3710    2766
CTETRA     18615       1    1523    2865    2776    4763
CTETRA     18616       1    2148    4325    4323    4324
CTETRA     18617       1    2776    2475    2637    4760
CTETRA     18618       1     530    2030     531     609
CTETRA     18619       1    1048    1542    1835    1058
CTETRA     18620       1    1049    1542    1055    1524
CTETRA     18621       1     516    4377    2041     520
CTETRA     18622       1    1268    2782    2858    4977
CTETRA     18623       1     614    1520     613    1519
CTETRA     18624       1    1851    1854    1687    2860
CTETRA     18625       1    1734    1688    4396    1690
CTETRA     18626       1    1267    4935    4934    4981
CTETRA     18627       1    1518    2182    2577    2653
CTETRA     18628       1    1401    4351    4347    4350
CTETRA     18629       1    5718    2026    5717    1359
CTETRA     18630       1    1680    4348    4347    4351
CTETRA     18631       1    4369    5825    5824    4925
CTETRA     18632       1    1982    3095    2202    2814
CTETRA     18633       1    2154    4336    4293    4294
CTETRA     18634       1    2260    1798    5713    5714
CTETRA     18635       1    4747    2920    4754    4753
CTETRA     18636       1    2779    4752    4753    4746
CTETRA     18637       1    1734    4855    1687    4844
CTETRA     18638       1    2347    4790    4788    4782
CTETRA     18639       1    1345     105    2442    3640
CTETRA     18640       1    1687    4909    2860    4907
CTETRA     18641       1    1293    4753    4752    4759
CTETRA     18642       1    2444    4753    4774    4754
CTETRA     18643       1    1687    2209    1851    2860
CTETRA     18644       1    2062    3838    3827    3836
CTETRA     18645       1    1114    4512    4448    4449
CTETRA     18646       1    1687    4856    1689    4842
CTETRA     18647       1    2638    3673    3838    3674
CTETRA     18648       1    1687    4842    2860    4909
CTETRA     18649       1    1789    1227     756    1645
CTETRA     18650       1    2340    3363    2341    3389
CTETRA     18651       1    2340    2930    1319    3390
CTETRA     18652       1    5131    2830    5118    2831
CTETRA     18653       1    5016     503    1149    5015
CTETRA     18654       1    2979    4459    2894    4549
CTETRA     18655       1     801    1250    4550    4551
CTETRA     18656       1    2690    2297    3848    3847
CTETRA     18657       1    2050     141    2051     140
CTETRA     18658       1    2895    4544    4459    4460
CTETRA     18659       1    2801    3388    2341    3364
CTETRA     18660       1    2341    2973    3364    3363
CTETRA     18661       1    4424    4431    4859    5815
CTETRA     18662       1    2481    4434    2480    4431
CTETRA     18663       1    2317    2481    2233    4431
CTETRA     18664       1     946     140    2051    2317
CTETRA     18665       1     945    2233    2047    2204
CTETRA     18666       1    2051    2482    2480    2481
CTETRA     18667       1    4415     140     141    1604
CTETRA     18668       1    3092    4879    4878    5011
CTETRA     18669       1    2374    5009    5010    4877
CTETRA     18670       1    2317    2233    2234    4853
CTETRA     18671       1    2234    4853    4852    2317
CTETRA     18672       1    4389    3376    5769    3374
CTETRA     18673       1    2565    3052    3050     775
CTETRA     18674       1    2133    3385    3387    5710
CTETRA     18675       1    4846    4853    4852    2234
CTETRA     18676       1    2565    3052    4189    3050
CTETRA     18677       1    3042    2809    4416    4417
CTETRA     18678       1      66    4407    4406    4414
CTETRA     18679       1    3052    4564    1816     775
CTETRA     18680       1    2233    4847    2204    4846
CTETRA     18681       1     946    2233     945    2234
CTETRA     18682       1     946    2317    2233    2234
CTETRA     18683       1    4854    4431    2233    2480
CTETRA     18684       1    1915    2579    2578    2316
CTETRA     18685       1    2377    3179    3104    3105
CTETRA     18686       1     945    2234    2204    1405
CTETRA     18687       1    2481     141    4422    4423
CTETRA     18688       1    1222    1904    2539    3229
CTETRA     18689       1    2830    1665    1664    1663
CTETRA     18690       1    2481    4422     141    2482
CTETRA     18691       1     477    5075     476    5070
CTETRA     18692       1     900    1059     478    2471
CTETRA     18693       1    2394    2662    4334    2089
CTETRA     18694       1     289     286     293     296
CTETRA     18695       1    2646    1659     672    1661
CTETRA     18696       1     871    1520    1517    2115
CTETRA     18697       1    2318    4333    3351    4332
CTETRA     18698       1    1627    5375    5374    4835
CTETRA     18699       1    1627    4833    5375    4835
CTETRA     18700       1    4334    5777    4297    3449
CTETRA     18701       1    2089    4334    4342    4297
CTETRA     18702       1    3022    3740    3736    3734
CTETRA     18703       1     382     911     910     384
CTETRA     18704       1     576    4542    4496    4553
CTETRA     18705       1    2665    2128    2664    3917
CTETRA     18706       1    4532    4528    2175    4533
CTETRA     18707       1    2391    3741    3740    3733
CTETRA     18708       1    2858    2168    4977    4902
CTETRA     18709       1    2858    2782    4999    4977
CTETRA     18710       1    2340    4404    3392    3391
CTETRA     18711       1    1668    2072    1399    1682
CTETRA     18712       1    2340    4411    4412    4404
CTETRA     18713       1    2605      66    4405    4406
CTETRA     18714       1    2341    4411    3391    3388
CTETRA     18715       1     602    2858    2165    2168
CTETRA     18716       1    1654    2746    1429    1653
CTETRA     18717       1    2928    3097    4397    2802
CTETRA     18718       1    2928    4390    4398    4391
CTETRA     18719       1    1849    1438    2071    2491
CTETRA     18720       1    3091    5339    2991    5341
CTETRA     18721       1    2991    2918    5340    2919
CTETRA     18722       1    2729    4580    4579    4584
CTETRA     18723       1    3052    4564     775    4559
CTETRA     18724       1    2266    3085    5234    5207
CTETRA     18725       1    2918    2919    2415    5345
CTETRA     18726       1    2918    2919    5345    5340
CTETRA     18727       1    4572    2169    2170    4575
CTETRA     18728       1    1442    2918    2415    3085
CTETRA     18729       1      71      36    2351      34
CTETRA     18730       1    3052    4559    4193    5800
CTETRA     18731       1    3084    3974    3966    3972
CTETRA     18732       1    3086    3971    3974    3972
CTETRA     18733       1     582    5065    2103    3296
CTETRA     18734       1     582    5049    5064    5067
CTETRA     18735       1    2094    2103    2105    3300
CTETRA     18736       1     477    2467    5071    2103
CTETRA     18737       1    1598    4494    4530    4456
CTETRA     18738       1     900    2094    2103    2104
CTETRA     18739       1    2464    2535    5174    5169
CTETRA     18740       1    2094     582    2467    2103
CTETRA     18741       1    2716    4457    4878    4458
CTETRA     18742       1    2732    2790    4113    4122
CTETRA     18743       1    2467    2103    5065    5071
CTETRA     18744       1    1251    4457    2716    4550
CTETRA     18745       1    2467    5074    2471     478
CTETRA     18746       1    3052    3050    4190    4189
CTETRA     18747       1    1251    4494    4457    4550
CTETRA     18748       1    1015    1042    1034    2591
CTETRA     18749       1    2301    4573    4582    4500
CTETRA     18750       1    3024    4554    2988    4541
CTETRA     18751       1    3823    2907    3822    3845
CTETRA     18752       1    2467    5064    2471    5074
CTETRA     18753       1    2968    4544    4460    4545
CTETRA     18754       1    1718    3135    2857    3140
CTETRA     18755       1    2894    4549    4544    4547
CTETRA     18756       1     573    1031     672    1661
CTETRA     18757       1    1720    1718    3134    2572
CTETRA     18758       1    2635    2226    4310    4308
CTETRA     18759       1      69    2802      68    2928
CTETRA     18760       1    2635    2963    4313    2800
CTETRA     18761       1    1413    2994     326    4959
CTETRA     18762       1    3042    4424    4416    4423
CTETRA     18763       1     482    1169    3011    3015
CTETRA     18764       1    2162    2635    4305    2562
CTETRA     18765       1    2635    2800    4313    4312
CTETRA     18766       1    1248    4530    4531    4455
CTETRA     18767       1    4877    1251    1598    4457
CTETRA     18768       1    3826    3049    2060    3870
CTETRA     18769       1    4877    1596    1251    4878
CTETRA     18770       1    1654    2464    2537     187
CTETRA     18771       1    2635    2562    4308    4305
CTETRA     18772       1    4876    2707    4456    4877
CTETRA     18773       1    1967    1975    5316    4822
CTETRA     18774       1    3052    3051    4195    4190
CTETRA     18775       1    4878    1601    3092    5011
CTETRA     18776       1    1248    2176    4532    1246
CTETRA     18777       1    1250    4552    4494    4550
CTETRA     18778       1    1967    1975    4818    1386
CTETRA     18779       1    2289    1986    5032    2291
CTETRA     18780       1    1967    5397    5316    5315
CTETRA     18781       1    1963    2771    1975    2021
CTETRA     18782       1    2771    2417    5321    2021
CTETRA     18783       1    1504    2560    2770    2417
CTETRA     18784       1    4325    4327    2148    4323
CTETRA     18785       1     186    3207     188    1659
CTETRA     18786       1    1429    2749    1430    1653
CTETRA     18787       1    3105    3178    3106     187
CTETRA     18788       1    4922    2165    1679    4329
CTETRA     18789       1    2770     563    5405    2560
CTETRA     18790       1    2799    5397    2770    5405
CTETRA     18791       1    2127    4874    4875    4454
CTETRA     18792       1    2983    3889    3916    3890
CTETRA     18793       1    3030    3891    3871    3890
CTETRA     18794       1    2350    3117    4056    5649
CTETRA     18795       1     933    2995    2369    1454
CTETRA     18796       1    2064    3673    3839    3838
CTETRA     18797       1    2912    4528    4497    4537
CTETRA     18798       1    2889     321     323     919
CTETRA     18799       1      95     321    1554    1450
CTETRA     18800       1     186    5171    2464    3208
CTETRA     18801       1    1513    1510    1534    1514
CTETRA     18802       1    2796    4684    4683    4734
CTETRA     18803       1    2796    4683    4735    4734
CTETRA     18804       1    3126     645    3122    1818
CTETRA     18805       1    1679    1400    4322    4329
CTETRA     18806       1    5166    2535    5167    2081
CTETRA     18807       1    2011    2886    3086    3084
CTETRA     18808       1     520    4382    4357    4377
CTETRA     18809       1    1913    2316    1912     140
CTETRA     18810       1    3042    2317    4431    2481
CTETRA     18811       1    1816     754    4194    4191
CTETRA     18812       1    2350    2995    3116    3118
CTETRA     18813       1     889    2995     933     890
CTETRA     18814       1    2707    4455    4875    4876
CTETRA     18815       1     582    3296    2103    3300
CTETRA     18816       1    3099    3870    3889    3890
CTETRA     18817       1    1816    5799    4555    4563
CTETRA     18818       1    3047    3082    2767    3712
CTETRA     18819       1    3052     775    1816    3051
CTETRA     18820       1     580    3916    3915    3981
CTETRA     18821       1    2103    3296    5071    3292
CTETRA     18822       1    2276    3825    3841    3824
CTETRA     18823       1    2707    4455    4876    4456
CTETRA     18824       1    4456    1598    2707    4530
CTETRA     18825       1    2162    2963    3448    3452
CTETRA     18826       1    2963    2905    3446    2800
CTETRA     18827       1     875     886     379    1434
CTETRA     18828       1     762     764    4453    4874
CTETRA     18829       1    2681    2359    3923    3922
CTETRA     18830       1    2666    4156    2889    4174
CTETRA     18831       1    1245    1251    4494    1598
CTETRA     18832       1     801    4551    4550    4549
CTETRA     18833       1    2162    2635    4309    4305
CTETRA     18834       1     958    2905    2963    2800
CTETRA     18835       1    1816     754    4191    3051
CTETRA     18836       1    2963    2157    3448    3440
CTETRA     18837       1    2301    4582    4573    4584
CTETRA     18838       1    3082     997     999    3711
CTETRA     18839       1    2963    2157    3440    1994
CTETRA     18840       1    2175    4496    4497    4528
CTETRA     18841       1    1659    3207     188    3203
CTETRA     18842       1     200    2963     958    1994
CTETRA     18843       1    5049    2491     582    2095
CTETRA     18844       1    2206    4368    4370    4369
CTETRA     18845       1    2491    2071    4319    5679
CTETRA     18846       1    2491    5066    5067    5068
CTETRA     18847       1       9     273     292    1773
CTETRA     18848       1     475     477     900     478
CTETRA     18849       1    2491    5050    2095    5049
CTETRA     18850       1    2260    5713    3373    3382
CTETRA     18851       1    2428    4362    4294    4293
CTETRA     18852       1    1246    4495    4530    4494
CTETRA     18853       1    1419    1417    1418    5157
CTETRA     18854       1    2636    1418    5156    1556
CTETRA     18855       1    1246    4495    4532    4530
CTETRA     18856       1    2542    1385    3112    3127
CTETRA     18857       1    4532    2176    2175    4496
CTETRA     18858       1    3111     645    3127    1385
CTETRA     18859       1    1484     930    1492    1485
CTETRA     18860       1    1248    4530    4532    4531
CTETRA     18861       1     322    1276    2440    2710
CTETRA     18862       1    1510    4154    4153    4133
CTETRA     18863       1     645    1391    3111    3119
CTETRA     18864       1    3125    4154    3124    1510
CTETRA     18865       1    1513    1486    4130    4133
CTETRA     18866       1    1004    4747    4741    4746
CTETRA     18867       1    1818    4150    4152    4147
CTETRA     18868       1    1135    2690    2907    2297
CTETRA     18869       1    2484    2414    3472    2483
CTETRA     18870       1     188    3228    1659    3203
CTETRA     18871       1    1766    4146    1770    4150
CTETRA     18872       1    1248    1598    1245    4530
CTETRA     18873       1    1250    4552    4495    4494
CTETRA     18874       1    1250    4551    4552    4550
CTETRA     18875       1    1818    3126     645    2542
CTETRA     18876       1    1510    1818    3124    3122
CTETRA     18877       1    4411    4404    3391    5763
CTETRA     18878       1    2895    4880    4460    4459
CTETRA     18879       1    1816    2661     754    1817
CTETRA     18880       1    1818    3124    3122    3123
CTETRA     18881       1    1484    1486    4153    4134
CTETRA     18882       1    1818    4153    4152    4150
CTETRA     18883       1    3027    3869    3825    3824
CTETRA     18884       1    1485    1484    4151    4135
CTETRA     18885       1    2494    2704    3844    3669
CTETRA     18886       1    2724    4480    4586    4481
CTETRA     18887       1    1484    1770    4151    4150
CTETRA     18888       1    4135    1485    4136    4151
CTETRA     18889       1    1484    1486    4134    4135
CTETRA     18890       1    2065    2063    2061    3828
CTETRA     18891       1    1429    2746     186    2747
CTETRA     18892       1    1818    3126    3128    3123
CTETRA     18893       1    1402    3072    2281    2280
CTETRA     18894       1    1125    4092    4091    4102
CTETRA     18895       1    2911    4452    4451    4872
CTETRA     18896       1    2625    5097    5096    5123
CTETRA     18897       1     188    2377    3104    3105
CTETRA     18898       1    1766    2542    3113    3126
CTETRA     18899       1     725     730    1289     731
CTETRA     18900       1    2908    3823    3822    3867
CTETRA     18901       1    2571    3132    3169    3170
CTETRA     18902       1     925    1484    1770    1485
CTETRA     18903       1    1770    1484    4151    1485
CTETRA     18904       1    4029    5642    5641    3142
CTETRA     18905       1     925    2542    1385    1783
CTETRA     18906       1    4150    1818    1484    1766
CTETRA     18907       1     525     923    2950     524
CTETRA     18908       1    1770     926    4136    4143
CTETRA     18909       1    4328    5829    4329    4919
CTETRA     18910       1    2949    2071    2971    5051
CTETRA     18911       1    2454    2878    3730    3729
CTETRA     18912       1    1766    3129    3128    3126
CTETRA     18913       1    3076    3717    3720    3718
CTETRA     18914       1    2448    3721    3724    3722
CTETRA     18915       1    2542    3112    1783    3113
CTETRA     18916       1    1385     645    3127    2542
CTETRA     18917       1     930    1484    1492     645
CTETRA     18918       1    1585    2533    4261    1550
CTETRA     18919       1    1496    5387    5386    5366
CTETRA     18920       1     495    3936    3937    3930
CTETRA     18921       1    3049    3825    3870    3826
CTETRA     18922       1    2397    2991    2972    2992
CTETRA     18923       1    1764    3955    3956    3950
CTETRA     18924       1    1550    1612    4246    4247
CTETRA     18925       1    2514    3542    1180    3541
CTETRA     18926       1    1801    1576    1577     950
CTETRA     18927       1    1816    4563    4195    5799
CTETRA     18928       1    1585     949    1496    5386
CTETRA     18929       1    5017    2847     503    4884
CTETRA     18930       1     145    3069    2724    2726
CTETRA     18931       1    1550    1551    4247    4254
CTETRA     18932       1    1585    4259    5386    4260
CTETRA     18933       1    2171    4496    4542    4497
CTETRA     18934       1    1248    2167    1695    4532
CTETRA     18935       1    2454    3724    3729    3730
CTETRA     18936       1    1585    4261    2533    4258
CTETRA     18937       1    2533    5379    1624    1625
CTETRA     18938       1    1585    1550    4261    4257
CTETRA     18939       1    2176    4495    4496    4532
CTETRA     18940       1     576    4495    4553    4496
CTETRA     18941       1    2172    2171    3024    4542
CTETRA     18942       1     576    4553    4495    4552
CTETRA     18943       1    2533    4261    4263    4258
CTETRA     18944       1    2533    4261    1550    1610
CTETRA     18945       1    1585    2533    5383    5385
CTETRA     18946       1    2978    4882    4461    4881
CTETRA     18947       1    3031    2487    3853    2882
CTETRA     18948       1    2924    4480    3069    4461
CTETRA     18949       1     394    2882    3094     395
CTETRA     18950       1    1585    1576     950    5367
CTETRA     18951       1    1585    5386    5385    5383
CTETRA     18952       1    1577    2534    5384    1576
CTETRA     18953       1    5383    5384    2533    1576
CTETRA     18954       1     178       7       3       4
CTETRA     18955       1    1576    1577    5368    5384
CTETRA     18956       1    2148    4296    4926    5826
CTETRA     18957       1    2137    4295    4324    4335
CTETRA     18958       1    3052    1816    4195    3051
CTETRA     18959       1    1854    4914    4907    4913
CTETRA     18960       1    1179    1178    3486    3554
CTETRA     18961       1    1576     950    5367    5368
CTETRA     18962       1     612     613    2137    2154
CTETRA     18963       1    2137    4324    4348    4335
CTETRA     18964       1    2148    4296    4325    4324
CTETRA     18965       1    1679    4323    4327    4322
CTETRA     18966       1    2493    1680    4348    4335
CTETRA     18967       1    1177    1180    2513    1178
CTETRA     18968       1    2534    1625    5376    5379
CTETRA     18969       1    1613    1576    2534    1577
CTETRA     18970       1    1545    1546    2906    1252
CTETRA     18971       1    1613    1610    1801    1612
CTETRA     18972       1    4327    4922    4329    5828
CTETRA     18973       1    1679    4327    4329    4322
CTETRA     18974       1    2971    4303    4326    5831
CTETRA     18975       1    4264    1624    1337    1610
CTETRA     18976       1    1610    1618    4245    4246
CTETRA     18977       1    1243    3758    3484    3483
CTETRA     18978       1    4246    1550    4261    1610
CTETRA     18979       1    2294    2748    3669    2296
CTETRA     18980       1    1695    4503    4531    4533
CTETRA     18981       1     576    4554    4553    4552
CTETRA     18982       1    1801    1610    1550    1612
CTETRA     18983       1    2903    2295    3848    2297
CTETRA     18984       1    2534    1628    5369    5376
CTETRA     18985       1    1701    4540    4554    4546
CTETRA     18986       1    2400    3686    3735    3738
CTETRA     18987       1    2534    1576    1613    1610
CTETRA     18988       1    4746     619    2779    4745
CTETRA     18989       1     303     766    1076     765
CTETRA     18990       1    5369    2534    5384    1577
CTETRA     18991       1    2127    4875    4874    5007
CTETRA     18992       1     667     683     104    3632
CTETRA     18993       1     650    3618    5221    5276
CTETRA     18994       1     667    3631     103    3622
CTETRA     18995       1     650    3621    3618    5276
CTETRA     18996       1     261    2775     617     260
CTETRA     18997       1     628     640     639     638
CTETRA     18998       1     956    2192    2904    2029
CTETRA     18999       1    2636    5135    5156    1873
CTETRA     19000       1    2905    2800    5684    3446
CTETRA     19001       1    1430    5153    5163    5154
CTETRA     19002       1    2904    3305    2905    5683
CTETRA     19003       1     650    2282    5220    5221
CTETRA     19004       1    1601    5010    5031    5011
CTETRA     19005       1    2905    5684    2800    5683
CTETRA     19006       1    1039    1744    2457    4010
CTETRA     19007       1    1390    3574    3023    1389
CTETRA     19008       1    1112    1548    1500    1501
CTETRA     19009       1    2963    3446    2905    3439
CTETRA     19010       1    2543    5317    5347    5318
CTETRA     19011       1    2905    3438    5684    3283
CTETRA     19012       1    2318    3352    3368    3351
CTETRA     19013       1    1518     874    2182    1811
CTETRA     19014       1    2319    4330    5773    3379
CTETRA     19015       1    2577    3377    2182    3378
CTETRA     19016       1    2374    5030    5010    5009
CTETRA     19017       1    2577    2653    3377    3353
CTETRA     19018       1    5030    2374    2706    5009
CTETRA     19019       1    2319    4330    4331    5773
CTETRA     19020       1    1030    4019    4026    4022
CTETRA     19021       1    2289    5031    5134    5128
CTETRA     19022       1    3028    3889    3869    3888
CTETRA     19023       1    2577    2653    3353    3352
CTETRA     19024       1     583    3980    3915    3914
CTETRA     19025       1     412    5176    5175    2278
CTETRA     19026       1    2897    3888    3914    3915
CTETRA     19027       1    2774    2772    1381    3911
CTETRA     19028       1     892     894     896    2033
CTETRA     19029       1    1991     893     956    2033
CTETRA     19030       1    1190    4755    2444    4772
CTETRA     19031       1    5432    5456    2445    5433
CTETRA     19032       1    1877    3195    5148    3212
CTETRA     19033       1    1664    2832     833    2290
CTETRA     19034       1    1877    3196    3206    2261
CTETRA     19035       1    2394    4333    4340    4341
CTETRA     19036       1    3351    4332    3368    2318
CTETRA     19037       1    2318    4331    4339    4332
CTETRA     19038       1     607    1302     611     610
CTETRA     19039       1    3196    2459    2261    1877
CTETRA     19040       1    4417    5816    4424    4865
CTETRA     19041       1    1188    4866    4417    4865
CTETRA     19042       1    3042    4417    4416    4424
CTETRA     19043       1    2316    2234    1405    4851
CTETRA     19044       1    2398    1180    2514    3023
CTETRA     19045       1    1767     971    2294    2748
CTETRA     19046       1    2893    4570    4540    4539
CTETRA     19047       1    2172    4567    4574    4542
CTETRA     19048       1    1877    2430    3195    3196
CTETRA     19049       1     666    3619    2795    3566
CTETRA     19050       1    1877    2539    3206    3211
CTETRA     19051       1    1383    3312    3318    3313
CTETRA     19052       1    2991    2992    2919    5352
CTETRA     19053       1    4064      34    1812    4108
CTETRA     19054       1    2173    4498    4575    4499
CTETRA     19055       1    1633    3737    3742    3739
CTETRA     19056       1    4576    2170    2172    4575
CTETRA     19057       1    4355    4390    5766    3394
CTETRA     19058       1    4390    5766    3394    5765
CTETRA     19059       1    1383    5412    3312    3313
CTETRA     19060       1    2255    3074    1752    2365
CTETRA     19061       1    2811    2605    2340    4412
CTETRA     19062       1    4390    4397    5765    3396
CTETRA     19063       1    2598    4391    4355    4390
CTETRA     19064       1    4390    3394    3395    5765
CTETRA     19065       1    5479    2229    5478    2445
CTETRA     19066       1    1480    2254    1481    1365
CTETRA     19067       1    1366    2745    2365    1752
CTETRA     19068       1    4397    4404    5764    3396
CTETRA     19069       1    3097    4397    4404    4405
CTETRA     19070       1    1374    2393    5436    5437
CTETRA     19071       1    2148    4325    5826    4927
CTETRA     19072       1     259    5527    1848    2139
CTETRA     19073       1    1374    2393    5459    5436
CTETRA     19074       1    2860    4908    4906    4909
CTETRA     19075       1    2599    2363    4433    4479
CTETRA     19076       1    2206    4371    4370    4373
CTETRA     19077       1    2599    4433    2338    4437
CTETRA     19078       1    1853    4295    2149     613
CTETRA     19079       1    2428    2154    4295     613
CTETRA     19080       1    1679    1680    4347    1401
CTETRA     19081       1    2048    2363    2519    2111
CTETRA     19082       1     650     667    3618    3621
CTETRA     19083       1    4859    4854    4431    2233
CTETRA     19084       1    2047    2204    2233    2363
CTETRA     19085       1    4575    4572    4576    2170
CTETRA     19086       1     666    2282    5221    5230
CTETRA     19087       1    2988    4569    4540    4570
CTETRA     19088       1    2891    4484    4485    4570
CTETRA     19089       1     213    4487    4593    4488
CTETRA     19090       1      86      85    3751    3750
CTETRA     19091       1    2727    4577    4488    4581
CTETRA     19092       1    1101    3683    3748    3684
CTETRA     19093       1    2480    2338    2363    4433
CTETRA     19094       1    2338    4438    2049    4440
CTETRA     19095       1     725    2697    1290    2698
CTETRA     19096       1     939     945    2051    2047
CTETRA     19097       1    3070    5015    4883    4882
CTETRA     19098       1    2884    3878     364    2520
CTETRA     19099       1    2338    2049    4438    2610
CTETRA     19100       1    2762    2848    5229    5231
CTETRA     19101       1    2762    5856    5232    5229
CTETRA     19102       1      66    4399    4398    4406
CTETRA     19103       1    2363    4674    4478    4479
CTETRA     19104       1    2762    3566    3590    5856
CTETRA     19105       1    2480    4854    4479    4847
CTETRA     19106       1    2398    3023    1446    3061
CTETRA     19107       1    4333    5776    4334    3351
CTETRA     19108       1    2394    4334    4333    4341
CTETRA     19109       1    1188    1912    2813    2578
CTETRA     19110       1    2578    4858    2579    4857
CTETRA     19111       1    2578    4858    2316    2579
CTETRA     19112       1     600     601     602    1266
CTETRA     19113       1    4325    4327    5827    4927
CTETRA     19114       1    4327    1679    4923    4927
CTETRA     19115       1    2158    4993    5044    5045
CTETRA     19116       1    1132    3938    3945    3946
CTETRA     19117       1    1680     610    2576    2137
CTETRA     19118       1    1903     237    2506    1876
CTETRA     19119       1    2031    2177    2576    2451
CTETRA     19120       1    5088    2651     740    5090
CTETRA     19121       1    2576    2451    2177    4917
CTETRA     19122       1    2148    2576    4924    2149
CTETRA     19123       1    2260    3373    3372    3382
CTETRA     19124       1    2164    2026    5717    5718
CTETRA     19125       1    2149    2148    4926    4924
CTETRA     19126       1    4327    2148    4323    1679
CTETRA     19127       1    2168     606     610    2576
CTETRA     19128       1    2881    4873    4872    5005
CTETRA     19129       1     793    3872    3891    3892
CTETRA     19130       1     762    4873    5005    5006
CTETRA     19131       1    3091    5341    2991    3589
CTETRA     19132       1    2569    1075    2567    1580
CTETRA     19133       1    2576    2148    4927    1679
CTETRA     19134       1    2576    2177    4921    4916
CTETRA     19135       1    4916    2576    4917    4924
CTETRA     19136       1    2165    2576    4921    4923
CTETRA     19137       1    2148    4325    4927    4327
CTETRA     19138       1    2281    5027    5026    5161
CTETRA     19139       1    2983    3890    3916    3917
CTETRA     19140       1    2137    1679    4323    2148
CTETRA     19141       1    1679    4347    1680    4323
CTETRA     19142       1    1680    1679    4323    2137
CTETRA     19143       1    2813    2155    2809    4402
CTETRA     19144       1    1688    4857    2578    1689
CTETRA     19145       1    2578    1686    1915    1605
CTETRA     19146       1    3042    4865    4417    4424
CTETRA     19147       1    1602    4401    4408    4409
CTETRA     19148       1    1188    4417    4866    4867
CTETRA     19149       1    2505    4710     797    2239
CTETRA     19150       1    4410    4409    2813    4417
CTETRA     19151       1    1701    4546    4554    4551
CTETRA     19152       1    1913    2234    2317     946
CTETRA     19153       1    2762    2795    3567    3566
CTETRA     19154       1    4574    2173    2912    4498
CTETRA     19155       1    2809    4402    2155    1602
CTETRA     19156       1    2809    1602     140    4408
CTETRA     19157       1    2992    5356    2395    2396
CTETRA     19158       1    2809    1602    4408    4409
CTETRA     19159       1     294     500    1922    1929
CTETRA     19160       1    2875    3043     526     524
CTETRA     19161       1    1865    1866    1864     562
CTETRA     19162       1    1734    2205    1854    1709
CTETRA     19163       1    1517    4291    4292    4338
CTETRA     19164       1    1687    4909    4843    4842
CTETRA     19165       1    1461    4813    1463    4828
CTETRA     19166       1    3091    2972    2514    2991
CTETRA     19167       1    2149    4296    4925    4926
CTETRA     19168       1    1460     562    1477    1476
CTETRA     19169       1     228     420     972     698
CTETRA     19170       1    2231    2085    2653    2655
CTETRA     19171       1    4370    4371    4914    5823
CTETRA     19172       1    1734    4361    4366    4367
CTETRA     19173       1    1734    4361    4367    4360
CTETRA     19174       1    2154    4294    4295    4335
CTETRA     19175       1    1556    3039    5158    2468
CTETRA     19176       1    2875    3043    4142    4139
CTETRA     19177       1    2913    3889    3915    3916
CTETRA     19178       1    1866     563    4826    2799
CTETRA     19179       1    2706    5029    5009    5008
CTETRA     19180       1    1866    4827    2032    4825
CTETRA     19181       1    1506    1463    4812    1866
CTETRA     19182       1    2680    2992    5351    2395
CTETRA     19183       1    2087    4341    4354    4349
CTETRA     19184       1    2415    3085    5233    1441
CTETRA     19185       1    2270    5234    3085    5235
CTETRA     19186       1    2266    5207    2918    3085
CTETRA     19187       1    2304    2303    4330    4290
CTETRA     19188       1    2319    2304    2303    4330
CTETRA     19189       1    2318    4332    4339    4340
CTETRA     19190       1    2320    4338    4337    4339
CTETRA     19191       1    2318    2394    3351    4333
CTETRA     19192       1    2718    5110    5113    5114
CTETRA     19193       1    3729    3683    1099    3737
CTETRA     19194       1    2266     493    2270    3085
CTETRA     19195       1     491    1390    2298    2407
CTETRA     19196       1    1360    1975    1361    2038
CTETRA     19197       1    1360    4800    1975    4801
CTETRA     19198       1    2428    4380    4362    4293
CTETRA     19199       1    2992    2919    5352    2396
CTETRA     19200       1    5589    5590    2044    1090
CTETRA     19201       1    5325    1360    1975    2021
CTETRA     19202       1    1967    4821    4818    4822
CTETRA     19203       1    1188    2316    2578    4864
CTETRA     19204       1    1975    1386    1961    4805
CTETRA     19205       1    4403    4396    5819    4862
CTETRA     19206       1    1360    2021    5320    1361
CTETRA     19207       1    1865     562    1460    1476
CTETRA     19208       1    2115    4374    4375    4379
CTETRA     19209       1    1686    1689    2579    2209
CTETRA     19210       1    1688    4862    4403    4863
CTETRA     19211       1     326    2994    4937    4959
CTETRA     19212       1    1864    1506    1866    1463
CTETRA     19213       1    1602    4401    4400    4408
CTETRA     19214       1     655    2334    1945    2479
CTETRA     19215       1    1603    1710    4378    4365
CTETRA     19216       1    1912    1188     140    2316
CTETRA     19217       1    3098     389    5044    4992
CTETRA     19218       1    5775    4332    3368    3351
CTETRA     19219       1    1077    2680    1085    1084
CTETRA     19220       1    1865     562    5399    4826
CTETRA     19221       1    2394    4333    2318    4340
CTETRA     19222       1    1406    1408     798    4712
CTETRA     19223       1     562    2559    5408    5409
CTETRA     19224       1    1912    1602    2809    2155
CTETRA     19225       1    5410    1477    5408     562
CTETRA     19226       1    4410    4417    4867    5817
CTETRA     19227       1    2209    1908    4897    2490
CTETRA     19228       1    1305    2477    4708    4707
CTETRA     19229       1    1504    2770    2560     563
CTETRA     19230       1    1690    2155    4395    1603
CTETRA     19231       1    1517    4292    4380    4293
CTETRA     19232       1     951     796    1408    2477
CTETRA     19233       1    1324    2341    1319    2973
CTETRA     19234       1    1853    4925    4369    4915
CTETRA     19235       1    1679    4322    1400    1401
CTETRA     19236       1    2155    4402    4403    4395
CTETRA     19237       1    1457    1456    2825    1453
CTETRA     19238       1    2825    4042    1453    1456
CTETRA     19239       1     521    1797    1210    1796
CTETRA     19240       1    1641    1361    1692    2038
CTETRA     19241       1    2825    2857    4052    3141
CTETRA     19242       1    2825    4052    2857    1453
CTETRA     19243       1    1603    4395    4359    4394
CTETRA     19244       1    4045    1582    4042    4040
CTETRA     19245       1    1582    4042    4040    2825
CTETRA     19246       1     330    1939     283    2994
CTETRA     19247       1    1869    4373    4363    4372
CTETRA     19248       1    1963    1961    1966    2039
CTETRA     19249       1    2875    4125    2710    4139
CTETRA     19250       1    1710    4364    4381    4365
CTETRA     19251       1    1734    4366    4372    4367
CTETRA     19252       1    1082    1081    1885    2417
CTETRA     19253       1    4039    3140    2825    3141
CTETRA     19254       1    2030    2490    2209     326
CTETRA     19255       1    1603    4358    4359    4378
CTETRA     19256       1    2875    5000    4124    5786
CTETRA     19257       1    2598    4383    3367    4355
CTETRA     19258       1    2994    3081    4965    4958
CTETRA     19259       1     520    4382    4356    4357
CTETRA     19260       1    1793    1797    1796    5712
CTETRA     19261       1     521     586     585    2133
CTETRA     19262       1    1457    2825    1456    1582
CTETRA     19263       1    2857    2998    3136    3151
CTETRA     19264       1    1924    2347    4790    4788
CTETRA     19265       1    1869    4380    4379    4363
CTETRA     19266       1     941    2025    1358    2024
CTETRA     19267       1    1356    5586    1930    1931
CTETRA     19268       1    1910    2597    2260    1796
CTETRA     19269       1     516    4377    4358    4378
CTETRA     19270       1    1434    1457    1453    1456
CTETRA     19271       1    2857    3151    3003    2998
CTETRA     19272       1    2875    5020    5000    5786
CTETRA     19273       1    1603    4394    4359    4358
CTETRA     19274       1    3101     776    3102    1044
CTETRA     19275       1    1690    4396    4360    4395
CTETRA     19276       1    1258    2936    2816    2076
CTETRA     19277       1    1690    4395    4360    4359
CTETRA     19278       1    1602    4402    4401    4409
CTETRA     19279       1    1606     514     516    1512
CTETRA     19280       1    1939    2994    4958    3081
CTETRA     19281       1    1057    5641    4029    4024
CTETRA     19282       1    1057     776    3131    3101
CTETRA     19283       1     674    1067    1222     226
CTETRA     19284       1     517    4357    4392    4393
CTETRA     19285       1    2875    1260    5021     526
CTETRA     19286       1    1014    1017    1032    1029
CTETRA     19287       1    4398    2928    4405    4397
CTETRA     19288       1    3097    2930    2340    3392
CTETRA     19289       1    4355    5767    3394    5766
CTETRA     19290       1    2598    3386    3394    3367
CTETRA     19291       1     519    4356    4391    4392
CTETRA     19292       1    2041    4389    4387    4386
CTETRA     19293       1    3097    2930    3392    3393
CTETRA     19294       1    2801    3364    2341    2109
CTETRA     19295       1    2813    4403    4867    4863
CTETRA     19296       1    2340    2605    4404    4412
CTETRA     19297       1    3097    3396    2802    3393
CTETRA     19298       1    2804    2875    1260    5000
CTETRA     19299       1     518    4358     516    4357
CTETRA     19300       1      69    2928      66     519
CTETRA     19301       1     516    4377    4357    4358
CTETRA     19302       1    2054    2056    4944    4940
CTETRA     19303       1      68    3097    2930    2605
CTETRA     19304       1      68    2605      66    2928
CTETRA     19305       1    2597    2041    4389    4388
CTETRA     19306       1      69     519    2598    2928
CTETRA     19307       1    1319    3384    2930    2953
CTETRA     19308       1    1691    2039    4797    4804
CTETRA     19309       1    2875    1260    5000    5021
CTETRA     19310       1    2208    2741    4899    2058
CTETRA     19311       1    4342    2089    4341    4334
CTETRA     19312       1    1519    2428    2154    4293
CTETRA     19313       1    2930    3385    2953    3384
CTETRA     19314       1    1875    2340    2605    2930
CTETRA     19315       1    2994    2611    4937    4965
CTETRA     19316       1    2605    2427    4413    4412
CTETRA     19317       1    2115    4381    4375    4376
CTETRA     19318       1     515    4383    4388    3367
CTETRA     19319       1      68    2930    3097    2802
CTETRA     19320       1    2428    4362    4368    4294
CTETRA     19321       1    4945    2057    4946    2611
CTETRA     19322       1    1908    2490    4898    4897
CTETRA     19323       1     516    4381    4376    4378
CTETRA     19324       1    1709    4372    4363    4364
CTETRA     19325       1    3097    3392    2340    4404
CTETRA     19326       1      68    3097    2928    2802
CTETRA     19327       1    2115    4385    4375    4374
CTETRA     19328       1    4364    1710    1709    4365
CTETRA     19329       1    2799    4821    1967    5397
CTETRA     19330       1    1710    4364    4379    4381
CTETRA     19331       1    2597    4388    4389    3376
CTETRA     19332       1     515    3367    2597    1210
CTETRA     19333       1    2041    4386    2312    4389
CTETRA     19334       1    2041     520    4377    4382
CTETRA     19335       1     515     520    2041    4388
CTETRA     19336       1    1734    4844    2205    4366
CTETRA     19337       1     607    1521     611    1907
CTETRA     19338       1    4370    4915    4369    5824
CTETRA     19339       1    2041    4388     520    4382
CTETRA     19340       1    2206    1853    4915    4914
CTETRA     19341       1    2451    1852    4905    4912
CTETRA     19342       1    2303    4290    2312    4385
CTETRA     19343       1    1734    1688    4855    4396
CTETRA     19344       1    1709    4367    4372    4364
CTETRA     19345       1    2451    4917    2149    4918
CTETRA     19346       1     563    2560    5404    5405
CTETRA     19347       1    2311     873    1910    2260
CTETRA     19348       1    1518    2319    2303    2320
CTETRA     19349       1    2319    2303    2320    4338
CTETRA     19350       1    1520    4379    1869    4380
CTETRA     19351       1    2311    2260    2597    3372
CTETRA     19352       1     513     516    4357     518
CTETRA     19353       1     520    4382    4383    4356
CTETRA     19354       1    2041    4389    4388    4387
CTETRA     19355       1    2597    4388    3376    3367
CTETRA     19356       1    4386    4384    2312    4389
CTETRA     19357       1    2311    4290    3381    4384
CTETRA     19358       1    1910    2311    2597    2312
CTETRA     19359       1     874    2260    1798    1796
CTETRA     19360       1     513     517     519      67
CTETRA     19361       1    2928    4390    4397    4398
CTETRA     19362       1    2598    4383    4355    4356
CTETRA     19363       1     516    1603    4378    4358
CTETRA     19364       1     516    4378    1710    4381
CTETRA     19365       1     516    2041    4377    4376
CTETRA     19366       1    2810    2117    3428    2334
CTETRA     19367       1    1605    1688    1690    2155
CTETRA     19368       1    4365    1709    4367    4360
CTETRA     19369       1    2810    3428    2117    3421
CTETRA     19370       1    2206    4370    4915    4369
CTETRA     19371       1      17    2808    1946    2117
CTETRA     19372       1    1763    1898    1885    2938
CTETRA     19373       1     326    2490    4897    4937
CTETRA     19374       1    3425    2810    3424    2334
CTETRA     19375       1    2801    2479    3425    2109
CTETRA     19376       1     539     292    1799     288
CTETRA     19377       1    1504    1371    2799    2032
CTETRA     19378       1    1851    1520    1709    1869
CTETRA     19379       1     648    2049    4444    2114
CTETRA     19380       1    2605    1875      68    2427
CTETRA     19381       1    1734    4366    5821    4844
CTETRA     19382       1    4403    1688    1690    4396
CTETRA     19383       1    4397    2802    4390    2928
CTETRA     19384       1    2813    1188    4417    2809
CTETRA     19385       1      69    2598     519     520
CTETRA     19386       1     935    2050    1911    1875
CTETRA     19387       1    2928     519    4391    4399
CTETRA     19388       1    1504    2560    2559     563
CTETRA     19389       1    1688    1605    1686    2578
CTETRA     19390       1    1912    2809    2813    2155
CTETRA     19391       1    1734    1687    1688    1690
CTETRA     19392       1    2809    1602    4409    4402
CTETRA     19393       1    2605    2928    4405      66
CTETRA     19394       1    2171    4574    4497    4542
CTETRA     19395       1    3097    2605    2928    4405
CTETRA     19396       1     728    1329     731    2489
CTETRA     19397       1    3024    4541    4542    4553
CTETRA     19398       1    2928     519    4399      66
CTETRA     19399       1    2341    2973    2109    3364
CTETRA     19400       1     655     646    2109    2603
CTETRA     19401       1    1323    2109     646    2973
CTETRA     19402       1    2109    2973    3429    3364
CTETRA     19403       1     655    2479    2485    2603
CTETRA     19404       1    2304    4290    3379    3381
CTETRA     19405       1    2319    2577    3378    3370
CTETRA     19406       1    2653    5715    2182    3377
CTETRA     19407       1    2479    2485    2603    4446
CTETRA     19408       1    2603     647    4443     654
CTETRA     19409       1    4332    4331    5774    3368
CTETRA     19410       1    2318    2577    3368    3352
CTETRA     19411       1    2603    4443     647    4426
CTETRA     19412       1    1304    1410    1306    1305
CTETRA     19413       1    2741    1266    4936    2612
CTETRA     19414       1    4369    4925    4296    5825
CTETRA     19415       1    1052     422    2132     263
CTETRA     19416       1    1263    1265    1268    1266
CTETRA     19417       1    1304    1305     970    2477
CTETRA     19418       1    1835    1306    1304    2441
CTETRA     19419       1    1505    2032    1866    1506
CTETRA     19420       1    5241    5240    1835    5248
CTETRA     19421       1    2598    4390    3394    3395
CTETRA     19422       1     330    1413    2994     326
CTETRA     19423       1    2441    1412    2131    5216
CTETRA     19424       1     947    2441    1304    1412
CTETRA     19425       1    1835    5240    2441    1058
CTETRA     19426       1     195    2963    2635    2800
CTETRA     19427       1    2562    4298    2089    2668
CTETRA     19428       1    2319    2577    2182    3378
CTETRA     19429       1     194    2562    2086    2668
CTETRA     19430       1    2562    2226    4307    2668
CTETRA     19431       1    1517    4292    4291    4374
CTETRA     19432       1    4330    5772    3379    4290
CTETRA     19433       1    2319    5773    4331    3370
CTETRA     19434       1    2562    4307    2226    4308
CTETRA     19435       1    1869    4362    4363    4373
CTETRA     19436       1    2853    2369    1454    4055
CTETRA     19437       1    2995    2369    2350     933
CTETRA     19438       1    2975    2995    1806    3153
CTETRA     19439       1    2995    1806    3153    3137
CTETRA     19440       1    2800    4312    2861    4311
CTETRA     19441       1    1924    4786    1691    4787
CTETRA     19442       1    2205    5822    4366    4844
CTETRA     19443       1    1824    1924    1691    2589
CTETRA     19444       1     829    2589    2039    2590
CTETRA     19445       1    1798    2260    3373    1796
CTETRA     19446       1    1691    4797    2589    4787
CTETRA     19447       1    2662    2655    3449    3442
CTETRA     19448       1    1691    2589    4797    2039
CTETRA     19449       1    2304    4290    4330    3379
CTETRA     19450       1    2303    4330    4290    4291
CTETRA     19451       1    4384    3374    4389    5770
CTETRA     19452       1    2311    4389    4384    3374
CTETRA     19453       1     212     313     885    1713
CTETRA     19454       1    4384    4290    3381    5771
CTETRA     19455       1    2413    2922    1407    4714
CTETRA     19456       1    2922    4723    1407    4714
CTETRA     19457       1     528    1798     539     540
CTETRA     19458       1    2041    4376    2312    4386
CTETRA     19459       1     521    1910    1796     515
CTETRA     19460       1    1798     528    1811     874
CTETRA     19461       1    4361    4396    4855    5820
CTETRA     19462       1    1323    1318     207    2235
CTETRA     19463       1     871     874     873    1518
CTETRA     19464       1     516    1512    4376    4381
CTETRA     19465       1     519     517    4357    4392
CTETRA     19466       1     520     513     516    4357
CTETRA     19467       1     517     518    4358    1603
CTETRA     19468       1     519    4356    4357     520
CTETRA     19469       1    2428    4368    4295    4294
CTETRA     19470       1    4392     519    4356    4357
CTETRA     19471       1     970    2477    4707    4743
CTETRA     19472       1     262    1412     264    2131
CTETRA     19473       1    1520    1869    4379    1710
CTETRA     19474       1    1297    2869    1907    2085
CTETRA     19475       1    4340    2230    4339    2318
CTETRA     19476       1     517    4358     518    4357
CTETRA     19477       1     516     514     515    2041
CTETRA     19478       1     515     520    4388    4383
CTETRA     19479       1    5410    1476     562    1865
CTETRA     19480       1    4388    4389    3376    5769
CTETRA     19481       1    4383    3367    4355    5767
CTETRA     19482       1    4353    2230    4337    4339
CTETRA     19483       1    2230    4337    4339    2320
CTETRA     19484       1    2041    4387    4382    4377
CTETRA     19485       1    4383    4388    3367    5768
CTETRA     19486       1    1753     849    2827    3017
CTETRA     19487       1     820    2884    3879    3859
CTETRA     19488       1    2532    5299    5864    5295
CTETRA     19489       1    2754    5036    5035    5096
CTETRA     19490       1    2873    2872    1244    3757
CTETRA     19491       1    1885    1081    2561    2559
CTETRA     19492       1    1244    1615    4283    4275
CTETRA     19493       1    2454    3723    3724    3721
CTETRA     19494       1    2169    4575    4572    4573
CTETRA     19495       1    1243    4282    1244    4283
CTETRA     19496       1    1244    3758    2873    3757
CTETRA     19497       1    1243    2873    3483    1255
CTETRA     19498       1    2871    1255    1243    1229
CTETRA     19499       1    2758    3748    3749    3684
CTETRA     19500       1    2872    1335    3754    3080
CTETRA     19501       1    2863    1675    5257    2248
CTETRA     19502       1    2733    3738    3740    3742
CTETRA     19503       1    4455    1695    1248    2707
CTETRA     19504       1    1674    1675    5257    2863
CTETRA     19505       1    1045    4027    4026    4030
CTETRA     19506       1    1652    5162    5166    5163
CTETRA     19507       1    2278    5175    5161    5185
CTETRA     19508       1     843    4869    5001    5002
CTETRA     19509       1    2532    3398    1946    2958
CTETRA     19510       1    2280    5152    5028    5027
CTETRA     19511       1    2280    5152    5027    5161
CTETRA     19512       1    2866    5246    5245    5213
CTETRA     19513       1    2081     410    5177    5176
CTETRA     19514       1    2664    3890    3917    3891
CTETRA     19515       1    2309     109    2146     409
CTETRA     19516       1     411    2535    1654    1653
CTETRA     19517       1     424     683     722     632
CTETRA     19518       1     683    3630     104    3632
CTETRA     19519       1    4744     566    2242    4738
CTETRA     19520       1    2532    3422    1388    1946
CTETRA     19521       1    2637    4744    4743    4750
CTETRA     19522       1     428    1008    1027    1209
CTETRA     19523       1    2637    4751    4744    4750
CTETRA     19524       1    5071    3292    5653    5654
CTETRA     19525       1     424    2132     818     652
CTETRA     19526       1    2828    3702    2670    3677
CTETRA     19527       1    5058    5654    5655    3293
CTETRA     19528       1    2969    3291    3292    3293
CTETRA     19529       1    2385    4085    2601    4078
CTETRA     19530       1    2491    2095    2094     582
CTETRA     19531       1    1283    3681    2453    3723
CTETRA     19532       1    1283    3723    2454    3721
CTETRA     19533       1    2828    2601    2620    2990
CTETRA     19534       1    2448    3724    2454    2449
CTETRA     19535       1     302     304     308    1167
CTETRA     19536       1    2670    3676    2722    2643
CTETRA     19537       1      93    2684    2438    1452
CTETRA     19538       1    2881    4873    4452    4872
CTETRA     19539       1    1449    2553    2555    2552
CTETRA     19540       1    3828    2063    2723    3872
CTETRA     19541       1     301    2065    2252    2644
CTETRA     19542       1    2947    2669    2709    2739
CTETRA     19543       1    2683    3895    2439    3921
CTETRA     19544       1     876      95    1450     321
CTETRA     19545       1    3034    2167    2357    4533
CTETRA     19546       1    4494    4530    1246    1245
CTETRA     19547       1    2487    2355     726    2488
CTETRA     19548       1    2967    4554    4552    4551
CTETRA     19549       1    2532    2500    5298    5295
CTETRA     19550       1    2879    4002    4005    3219
CTETRA     19551       1    1044    2646     226    1031
CTETRA     19552       1    2532    1946    1947    2958
CTETRA     19553       1    1037    4003    4004    4006
CTETRA     19554       1     301    2252    2251    2644
CTETRA     19555       1    1039    4004    4003    4013
CTETRA     19556       1    2990    2834    3678    3835
CTETRA     19557       1    2990    3833    2643    3067
CTETRA     19558       1    2608    2773    2412    4197
CTETRA     19559       1    3055    4883    4463    4462
CTETRA     19560       1     338    5036    5015    5035
CTETRA     19561       1    1759    2846    2596    2595
CTETRA     19562       1    1767    2295    2297    2296
CTETRA     19563       1    2565    2596     775    3050
CTETRA     19564       1     772    2877     774    1214
CTETRA     19565       1    1346    4593    4487    4592
CTETRA     19566       1    2449    3722    3725    3690
CTETRA     19567       1    2883    3274    3282    3279
CTETRA     19568       1    3045    5077    5053    5073
CTETRA     19569       1     159    3279    3282    3281
CTETRA     19570       1    1228    3951    3943    3955
CTETRA     19571       1    2596    2595    4492    4491
CTETRA     19572       1    1831    1884    3050    1829
CTETRA     19573       1    4561    2846    2596    2565
CTETRA     19574       1     772    1816     775    3051
CTETRA     19575       1    1283    3723    3721    3720
CTETRA     19576       1    3076    1338    3717    4209
CTETRA     19577       1    1283    3723    3720    3681
CTETRA     19578       1    1758    3076    1339    1283
CTETRA     19579       1    1338    3679    5749    4199
CTETRA     19580       1    4198    2412    4196    4493
CTETRA     19581       1    2580    3679    1338    4199
CTETRA     19582       1     562    2559    1477    5408
CTETRA     19583       1    2289    2292    5032    5128
CTETRA     19584       1    2291    2292    5116    5032
CTETRA     19585       1     775    1816    1817    4564
CTETRA     19586       1     774    2596     775    3071
CTETRA     19587       1    2913    3915    3889    3888
CTETRA     19588       1    1332    1331    1988    1956
CTETRA     19589       1     783    5144    3087    1874
CTETRA     19590       1    2897    3887    3083    3914
CTETRA     19591       1     774    3051    3050    2877
CTETRA     19592       1     775    3071    4560    4562
CTETRA     19593       1    1065    4034    4031    4030
CTETRA     19594       1    2567    4029    4033    4034
CTETRA     19595       1    1064    1057    2568    1065
CTETRA     19596       1    2172    4541    4567    4542
CTETRA     19597       1    2400    3738    3685    3686
CTETRA     19598       1    2748    2296    2494    3669
CTETRA     19599       1    2912    4497    4498    4537
CTETRA     19600       1     772    2495    1817     754
CTETRA     19601       1    2856    5152    2280    5162
CTETRA     19602       1    1560    2898    2053    2447
CTETRA     19603       1     775     773    3071    4562
CTETRA     19604       1    3065    5027    5028    5007
CTETRA     19605       1     583    3980    3981    3915
CTETRA     19606       1    1419    5157    5154    5155
CTETRA     19607       1      94     276     277      96
CTETRA     19608       1    2899    2704    3843    2715
CTETRA     19609       1    2747    5142    5155    5165
CTETRA     19610       1    1587    1652    2856    1651
CTETRA     19611       1     226     227    2646    3227
CTETRA     19612       1    1657    3205    3210    3204
CTETRA     19613       1    1014    1042    1034    1015
CTETRA     19614       1    1833    2683    2439    2083
CTETRA     19615       1    5029    3040    2925    5028
CTETRA     19616       1    3000    2834    2835    3831
CTETRA     19617       1    2834    3067    2437    3830
CTETRA     19618       1    2709    3698    2739    3704
CTETRA     19619       1    2454    3723    3729    3724
CTETRA     19620       1    2080    2548    2443      36
CTETRA     19621       1    3076    4225    2657    1339
CTETRA     19622       1    3076    3718    3720    3721
CTETRA     19623       1    2251    2669    2739    2722
CTETRA     19624       1    2947    2265    2630    2264
CTETRA     19625       1    2559    1081    2561    5403
CTETRA     19626       1    1638    5370    5373    5371
CTETRA     19627       1    2401    2787    4525    4527
CTETRA     19628       1    2661    2660    4192     744
CTETRA     19629       1    3079    2301    4500    2300
CTETRA     19630       1     910     916    2787    2300
CTETRA     19631       1    2186    4220    4231    1529
CTETRA     19632       1    1632    3742    3685    3738
CTETRA     19633       1    2734    3177    5168    5671
CTETRA     19634       1    2734    3173    2537    3177
CTETRA     19635       1    1823    1718    2572    3003
CTETRA     19636       1    2495      59    2186     754
CTETRA     19637       1    3020    5178    5672    3176
CTETRA     19638       1    3020    5192    5178    5182
CTETRA     19639       1    3080    3482    3481    3754
CTETRA     19640       1    2873    3757    3483    3482
CTETRA     19641       1    2222    2563    2564    2380
CTETRA     19642       1    1244    4275    4280    4184
CTETRA     19643       1     432    5363    5395    5396
CTETRA     19644       1    1536    2659    2301    3059
CTETRA     19645       1    2693    3482    3483    3522
CTETRA     19646       1    2286    2273    3479    2458
CTETRA     19647       1    2285    3559    3490    3551
CTETRA     19648       1      47     556     555      50
CTETRA     19649       1    2285    3559    3551    3560
CTETRA     19650       1    2523    4809    4806    4808
CTETRA     19651       1    3079    4500    2301    4501
CTETRA     19652       1    2658    2659    3079    2301
CTETRA     19653       1     830    2590     829    2761
CTETRA     19654       1    2415    1441     826    1442
CTETRA     19655       1    2661    4192    2660    4060
CTETRA     19656       1    2038    4802    4804    4801
CTETRA     19657       1    2495    2661    2660    2659
CTETRA     19658       1    4015    1223    4011    2780
CTETRA     19659       1    2468    5134    5031    5030
CTETRA     19660       1    4028    3980     583    4023
CTETRA     19661       1    5157    1433    1430    5159
CTETRA     19662       1    2636    5135    5128    5134
CTETRA     19663       1    1553    2683    2934    2439
CTETRA     19664       1    2835    2437    2439    3875
CTETRA     19665       1    2835    2439    3876    3875
CTETRA     19666       1    1599    3756    3757    3755
CTETRA     19667       1    1594    1253    1545    2906
CTETRA     19668       1    2426    4508    3005    4524
CTETRA     19669       1    1599    3743    3756    3755
CTETRA     19670       1    3756    4282    3758    5752
CTETRA     19671       1    2660    4526    2401    3079
CTETRA     19672       1    2123    2124    1335    3080
CTETRA     19673       1    1244    3758    3756    4282
CTETRA     19674       1    2580    4186    3743    5750
CTETRA     19675       1    1616    3005     910    2787
CTETRA     19676       1      61      63     877     918
CTETRA     19677       1    2580    3743    3744    3679
CTETRA     19678       1    1757    2453    1285    2470
CTETRA     19679       1    2658    1637     879    1536
CTETRA     19680       1    5759    4256    1595    5365
CTETRA     19681       1    2787    2300    4525    4536
CTETRA     19682       1    4145    3115    5782    5619
CTETRA     19683       1    3115    1780    1813    3130
CTETRA     19684       1    4733    4732    2648    4686
CTETRA     19685       1    1310    2999    2615    2803
CTETRA     19686       1    2541    4731    4732    4733
CTETRA     19687       1    2659    3059    4582    2301
CTETRA     19688       1    2558    4515    1895    2550
CTETRA     19689       1    4742    2900    2805    4748
CTETRA     19690       1    2558    4511    1895    4515
CTETRA     19691       1    1162    1895    4511    4510
CTETRA     19692       1    1895    3077    2549    4520
CTETRA     19693       1     771    2150     589    1964
CTETRA     19694       1    2006    4890    4470    4469
CTETRA     19695       1    2150    3468    3469    3609
CTETRA     19696       1     509    1727    2803    1328
CTETRA     19697       1    1964    3601    3608    3600
CTETRA     19698       1    1072     912    1895    2433
CTETRA     19699       1    2147    3185    3184    3183
CTETRA     19700       1    3028    3099    1174    3027
CTETRA     19701       1     307    3077    1894    2911
CTETRA     19702       1    2467    5069    5071    5065
CTETRA     19703       1    1024     567     570    2130
CTETRA     19704       1     916     879    2658    1637
CTETRA     19705       1    1921     543    3943    1228
CTETRA     19706       1    2969    3291    2103    3292
CTETRA     19707       1    2401    4527    2426    2787
CTETRA     19708       1    1616    2426    3005    2787
CTETRA     19709       1     627    5073    5054    5060
CTETRA     19710       1     897    3255    5631    3243
CTETRA     19711       1     897    3958    5631    3255
CTETRA     19712       1    2654    1999    3962    3952
CTETRA     19713       1    2447    2898    1764     907
CTETRA     19714       1    1771    2634    2833    1792
CTETRA     19715       1    1771    5632    3235    3959
CTETRA     19716       1    1616    2731    2789    3005
CTETRA     19717       1    3005     384    4534    4507
CTETRA     19718       1    1616    2556    2379    2790
CTETRA     19719       1    2035    3262    3287    3263
CTETRA     19720       1    2550    2943    4519    4516
CTETRA     19721       1    1072    2433    1162    2551
CTETRA     19722       1    2970    3264    3289    3265
CTETRA     19723       1    2969    3292    5071    5654
CTETRA     19724       1    2379    4517    2550    4519
CTETRA     19725       1    5378    5866    4817    4834
CTETRA     19726       1    2375    5374    5378    5867
CTETRA     19727       1    2550    4516    2549    2943
CTETRA     19728       1    3087    5147    5144    5142
CTETRA     19729       1    1657    3210    3212    3209
CTETRA     19730       1      55      61     877    1637
CTETRA     19731       1    1429    2749    1419    1430
CTETRA     19732       1    1071    3077     307    2549
CTETRA     19733       1     211    5665    3212    5148
CTETRA     19734       1    1656    3087    1659    1657
CTETRA     19735       1    2270    5853    5234    5235
CTETRA     19736       1    1453    4043    1455    1456
CTETRA     19737       1    3591    2266    3593    5206
CTETRA     19738       1    3085    5235    5234    5233
CTETRA     19739       1    2821    3170    2570    2571
CTETRA     19740       1    2558    4517    4511    4515
CTETRA     19741       1    2568    4033    4029    3144
CTETRA     19742       1    4029    4033    5642    3144
CTETRA     19743       1    1895    4520    2549    4515
CTETRA     19744       1    2568    3142    3131    3132
CTETRA     19745       1     916    2909    2401    2941
CTETRA     19746       1    3296    5652    5678    5068
CTETRA     19747       1    2789    4506     384    4507
CTETRA     19748       1    3296    5065    5652    5068
CTETRA     19749       1    2103    5071    3296    5065
CTETRA     19750       1    5062    5061    3266    5656
CTETRA     19751       1    5062    5058    5655    3290
CTETRA     19752       1    3012    5062    5061    3266
CTETRA     19753       1    1075    1580    2130    4036
CTETRA     19754       1    2570    3184    2308    3185
CTETRA     19755       1    2082    5059    5062    5058
CTETRA     19756       1    2789     384    4506    2943
CTETRA     19757       1    2795    2839    3620    3619
CTETRA     19758       1    1534    1514    1510    4051
CTETRA     19759       1    1510    4133    4132    4154
CTETRA     19760       1    3121    4132    5651    5625
CTETRA     19761       1    3047    3715    2769    3697
CTETRA     19762       1    1388    5865    5839    3420
CTETRA     19763       1    2947    2709    2769    2739
CTETRA     19764       1    3422    1946    3421    3420
CTETRA     19765       1    2532    5295    5864    3397
CTETRA     19766       1     626    5060    5059    5072
CTETRA     19767       1     298    2789    2943     384
CTETRA     19768       1    2113    5724    2463    2462
CTETRA     19769       1    2573     477    2969    2103
CTETRA     19770       1    3096    2692    3864    3032
CTETRA     19771       1    1526    5724    2113    1281
CTETRA     19772       1     135     992    1479    2753
CTETRA     19773       1     772    1817    1816     754
CTETRA     19774       1    1816    2661    1817    4555
CTETRA     19775       1     533    5082    5099    5083
CTETRA     19776       1     340    5080    5037    5036
CTETRA     19777       1    2143    3906    3907    3880
CTETRA     19778       1    2113    5724    5723    2460
CTETRA     19779       1    2572    2308    3145    3185
CTETRA     19780       1    2631    3808    3662    3469
CTETRA     19781       1    1810    1806    3158    3153
CTETRA     19782       1     453    1325    2966    2724
CTETRA     19783       1     589    3609    3469    3607
CTETRA     19784       1    2645    2995     933    2975
CTETRA     19785       1     888    1387    1810    1384
CTETRA     19786       1    1810    3164    1387    3159
CTETRA     19787       1    2512    5104    5105    5114
CTETRA     19788       1    2624    5098    5081    5097
CTETRA     19789       1    2623    5081    5089    5080
CTETRA     19790       1    2625    5097    5080    5096
CTETRA     19791       1    1965    2916     769     510
CTETRA     19792       1    2816    1958    2076    5211
CTETRA     19793       1    1810    1384    3164    3158
CTETRA     19794       1     888    1384    1810    2935
CTETRA     19795       1    2706    5028    5029    5008
CTETRA     19796       1    5161    1651    5175    2278
CTETRA     19797       1    2705    4875    5007    5008
CTETRA     19798       1    1810    3158    1806    2935
CTETRA     19799       1    3030    3870    3890    3871
CTETRA     19800       1     762    4873    4874    4453
CTETRA     19801       1    2633    4713    4680    4679
CTETRA     19802       1    2718    2455    5113    2456
CTETRA     19803       1    2052    2456    2719    3009
CTETRA     19804       1     654    4443    4445    4444
CTETRA     19805       1    2633    4680    4713    4710
CTETRA     19806       1    2733    1470    3740    3738
CTETRA     19807       1    1236    1759    2503     416
CTETRA     19808       1    4571    3041    1136    4577
CTETRA     19809       1    1633    3737    3684    3742
CTETRA     19810       1    3050    2877    4215    1884
CTETRA     19811       1    3052    3050    3051    4190
CTETRA     19812       1    2519    2111    4478    4477
CTETRA     19813       1    1355    4487    4577    4565
CTETRA     19814       1     649    1857    2336    2114
CTETRA     19815       1    1858     939    2047     945
CTETRA     19816       1     583    4028    3981    3980
CTETRA     19817       1     580    3981    3982    3916
CTETRA     19818       1    1973    2336    5834    5833
CTETRA     19819       1    4674    2599    2519    4726
CTETRA     19820       1    1252    1545    1253    2906
CTETRA     19821       1    1243    1253    1255    3513
CTETRA     19822       1    1873    5135    1417    5136
CTETRA     19823       1    2988    4569    4541    4540
CTETRA     19824       1    1816    2661    4194     754
CTETRA     19825       1     965    3024     576    2967
CTETRA     19826       1    1346    4487    4486    4592
CTETRA     19827       1     913     915    4513    4512
CTETRA     19828       1    1464    1499    1498    2757
CTETRA     19829       1    2873    3482    3080    3757
CTETRA     19830       1     913    1895    1162    4510
CTETRA     19831       1    2859    3205    3232    3233
CTETRA     19832       1    2144    2572    2570    2308
CTETRA     19833       1     979    2693     978    1255
CTETRA     19834       1    1651    5175    2278     412
CTETRA     19835       1    2693    2873     978    1255
CTETRA     19836       1    2856    5152    5153    5160
CTETRA     19837       1    4589    4590    2472    4484
CTETRA     19838       1    1242    1698    2822    2674
CTETRA     19839       1    2170    4567    4566    4576
CTETRA     19840       1    2190    4695    4664    4663
CTETRA     19841       1    2429    1230    2785    1229
CTETRA     19842       1    2693    2682     979    2695
CTETRA     19843       1     701    2222    1733     973
CTETRA     19844       1    1255    3522    2693    3483
CTETRA     19845       1    4569    4567    3029    4541
CTETRA     19846       1    2297    2296    3668    3846
CTETRA     19847       1    2307    3186    3182    3181
CTETRA     19848       1    1255    2693    3522    2682
CTETRA     19849       1     783    3087    2747    1656
CTETRA     19850       1    4341    2089    4349    2087
CTETRA     19851       1     845    2554    2555    5023
CTETRA     19852       1    2086     191    1397     604
CTETRA     19853       1    4343    2089    4299    2088
CTETRA     19854       1    2925    5159    5158    5160
CTETRA     19855       1    2088    4349    2087    4351
CTETRA     19856       1     913     915    4510    4513
CTETRA     19857       1    3062    1381    1380    3912
CTETRA     19858       1    5028    3040    2925    5152
CTETRA     19859       1    2089    4299    2668    4298
CTETRA     19860       1     417    1321    1314    1315
CTETRA     19861       1    2523    4809    4808    4799
CTETRA     19862       1    2089    4299    2088    2668
CTETRA     19863       1    2086    2562    2089    2668
CTETRA     19864       1    4694    2403    4796    1548
CTETRA     19865       1     913    4514    5790    4512
CTETRA     19866       1     913     914    4074    2433
CTETRA     19867       1    2674    3551    3560    2285
CTETRA     19868       1    1440    5060     626     627
CTETRA     19869       1     156    1440     627    1522
CTETRA     19870       1    2088    4343    2089    4349
CTETRA     19871       1    3012    5062    3266    3290
CTETRA     19872       1     374    2521     665     627
CTETRA     19873       1    1522    5100    3009    5101
CTETRA     19874       1    1907    2653    2085    2869
CTETRA     19875       1     194     195    2157    2162
CTETRA     19876       1    2241    2240    4729    4730
CTETRA     19877       1    2887    2886    1291    1289
CTETRA     19878       1     620    2241     619    2792
CTETRA     19879       1    3099    3870    3869    3889
CTETRA     19880       1    2060    3827    3826    3871
CTETRA     19881       1    2086    2164    2662    2156
CTETRA     19882       1    1720    3171    2572    3134
CTETRA     19883       1    2655    2653    2577    3352
CTETRA     19884       1    2060    3827    3871    3872
CTETRA     19885       1    3945    2184    3944    3937
CTETRA     19886       1     902    1567     896    1507
CTETRA     19887       1    2577    2653    2182    3377
CTETRA     19888       1    2652    5088    2651     740
CTETRA     19889       1    1288    3905    2520     494
CTETRA     19890       1     913    4074     914    4170
CTETRA     19891       1    2465    5107    5099    5102
CTETRA     19892       1    2898    3950    3964    3973
CTETRA     19893       1     412    5176    5166    5175
CTETRA     19894       1    4729    2240    2241    4728
CTETRA     19895       1     619    2241    4739    2792
CTETRA     19896       1    4739    4745    4738    2241
CTETRA     19897       1    2889     323    4176    4175
CTETRA     19898       1    1914    5296    3407    3402
CTETRA     19899       1    2439    2684    3894    3874
CTETRA     19900       1    2292    2290    5116    5129
CTETRA     19901       1    3029    4568    4566    4569
CTETRA     19902       1    2891    4485    4568    4570
CTETRA     19903       1     913    4514    4075    5790
CTETRA     19904       1    2274    3746    3788    3747
CTETRA     19905       1     391     394     729    1956
CTETRA     19906       1    2118    4648    2221    4647
CTETRA     19907       1    2170    4566    4571    4576
CTETRA     19908       1    1292    4752    4762    4759
CTETRA     19909       1    2518     842     617    2500
CTETRA     19910       1    1292    4762    4761    4758
CTETRA     19911       1    2863    5254    5256    5255
CTETRA     19912       1    5292    5293     842     817
CTETRA     19913       1     817    5291    5267     260
CTETRA     19914       1    5292    5291    5267     817
CTETRA     19915       1    1556    5156    5134    5158
CTETRA     19916       1     842    2500    5297     617
CTETRA     19917       1    5153    5159    2856    5160
CTETRA     19918       1    1417    5140    5136    5135
CTETRA     19919       1     842    5297    2500    5294
CTETRA     19920       1    3082    3716    2767    3712
CTETRA     19921       1    1695    4503    4454    4531
CTETRA     19922       1    3047    2767    2529    2769
CTETRA     19923       1    3006    3082     997     999
CTETRA     19924       1    5142     783    5144    3087
CTETRA     19925       1    3025    4453    4454    4503
CTETRA     19926       1    2747    2749    5155    1419
CTETRA     19927       1    2878    3729    3737    3730
CTETRA     19928       1     633     664    3402    3403
CTETRA     19929       1    2850    3007    3731    3739
CTETRA     19930       1    1336    2122    3776    2874
CTETRA     19931       1     502     460     452    1194
CTETRA     19932       1    2876    3973    3964    3965
CTETRA     19933       1    2660    2401    4061    2941
CTETRA     19934       1    2459    2261    3198    3197
CTETRA     19935       1    1662    5136    1663    1665
CTETRA     19936       1    1658    1659    2859    1657
CTETRA     19937       1    2661    2660    2659    4502
CTETRA     19938       1    1168    5122    2717    5102
CTETRA     19939       1    2506    5138    5133    5132
CTETRA     19940       1    2876    3974    3973    3965
CTETRA     19941       1    2526    5104    5103    5120
CTETRA     19942       1    4497    4496    2175    2171
CTETRA     19943       1    2565    2596    4560     775
CTETRA     19944       1    4646    2120    2119    4645
CTETRA     19945       1    1325    4587    4603    4588
CTETRA     19946       1    2660    4061    2401    4094
CTETRA     19947       1    2604    2563    2607    2609
CTETRA     19948       1    2458    2016    2332    3782
CTETRA     19949       1      47    2527     556    1347
CTETRA     19950       1    1346    1355    4486    4487
CTETRA     19951       1    2527     554    4625    2344
CTETRA     19952       1    2120    4664    2190    2119
CTETRA     19953       1    2013    3559    3560    3478
CTETRA     19954       1     751    3477    2014    2015
CTETRA     19955       1    2639    2677    3556    3557
CTETRA     19956       1    3771    2015    2012    3770
CTETRA     19957       1     751    2016    2013    3477
CTETRA     19958       1    2405    3548    2321    2421
CTETRA     19959       1     851    2619     853    2421
CTETRA     19960       1     472    1350    4609    4610
CTETRA     19961       1    2016    2015    3771    3477
CTETRA     19962       1    2587    5311    5310    5390
CTETRA     19963       1     221    1842    2224    1868
CTETRA     19964       1    2013    2458    3478    2016
CTETRA     19965       1     355    2784    2523    4696
CTETRA     19966       1    2653    2869    5716    3445
CTETRA     19967       1    2677    2405    3548    2321
CTETRA     19968       1    3520    2425    2424    2695
CTETRA     19969       1    3561    2674    3564    2677
CTETRA     19970       1    2639    3548    2677    3557
CTETRA     19971       1    2012    3770    2314    2333
CTETRA     19972       1    2066    4665     473    2119
CTETRA     19973       1     748     851     856    1420
CTETRA     19974       1    2513    3552    2322    3553
CTETRA     19975       1    3544    2321    2410    3018
CTETRA     19976       1    2039    1966    2761    4798
CTETRA     19977       1    2298    3577    3581    3576
CTETRA     19978       1    2319    2318    3370    4331
CTETRA     19979       1    2404    2381    4795    1548
CTETRA     19980       1    4785    1500    4779    2420
CTETRA     19981       1    2810    3420    3424    3421
CTETRA     19982       1    1847     316    5616    5593
CTETRA     19983       1    2688    3358    3409    3357
CTETRA     19984       1    1794    1795    5711    5599
CTETRA     19985       1     941     657     408     403
CTETRA     19986       1    2668    4304    4298    4299
CTETRA     19987       1     650    3621    5277    3361
CTETRA     19988       1    2394    3351    4334    2655
CTETRA     19989       1     261     266     625     258
CTETRA     19990       1    2235    1145    3427    3431
CTETRA     19991       1    2413     368     366    4678
CTETRA     19992       1    1845     425    2416     250
CTETRA     19993       1    2481    4423    4422    4430
CTETRA     19994       1    2890    2240    4735    4736
CTETRA     19995       1     632    2416     274     275
CTETRA     19996       1     265     818     424    2132
CTETRA     19997       1    1026    3650    1209    1027
CTETRA     19998       1    2477    4708    4737    4709
CTETRA     19999       1     210    1857    2114    5306
CTETRA     20000       1    1207     275    1026    2346
CTETRA     20001       1     587    2007    2006    4469
CTETRA     20002       1    2648    2796    2541    4733
CTETRA     20003       1    1393    2744    3641    3642
CTETRA     20004       1    3380    3382    2304    2311
CTETRA     20005       1     784    2239     797    2242
CTETRA     20006       1    2592    2593    1469    3412
CTETRA     20007       1    1294    4753    4759    4774
CTETRA     20008       1    1542    5239    5242    5240
CTETRA     20009       1    2242    4728    4738    2241
CTETRA     20010       1    2299    1328    1725    3581
CTETRA     20011       1    4678     366    4474     368
CTETRA     20012       1     798     797    2633    4713
CTETRA     20013       1    2744     621    3651    1027
CTETRA     20014       1    1305    1408    4708    2477
CTETRA     20015       1     652    5218     651    1053
CTETRA     20016       1    2287    2288    2631    3469
CTETRA     20017       1    1207    1026    1948    2346
CTETRA     20018       1    1755    1815     357    2404
CTETRA     20019       1    1504    2799     563    2032
CTETRA     20020       1     663    2958    1592    3405
CTETRA     20021       1    1443    1441    2077    1208
CTETRA     20022       1     818     264    5280     993
CTETRA     20023       1    1446    3061    3023    3582
CTETRA     20024       1     554    2344    4607    4625
CTETRA     20025       1    1834    1885    1370    2417
CTETRA     20026       1    2619     851     853     854
CTETRA     20027       1    1307    2513    2020    3061
CTETRA     20028       1    2354    4483    4482    4588
CTETRA     20029       1     824     636     831     860
CTETRA     20030       1    2984     852     853    3558
CTETRA     20031       1      42     857     854     851
CTETRA     20032       1    2189    2403    4663    4662
CTETRA     20033       1    1079     828     360    1836
CTETRA     20034       1    2674    2014    3562    3564
CTETRA     20035       1    1241    2421    2678    2405
CTETRA     20036       1    2039    4802    4797    4804
CTETRA     20037       1    1691    4787    4804    4797
CTETRA     20038       1    3084    2876    2198    2011
CTETRA     20039       1    2761    4799    1966    2784
CTETRA     20040       1    1448    2415    5346    1444
CTETRA     20041       1    2589    4788    4787    4797
CTETRA     20042       1    1958    2245    5251    5250
CTETRA     20043       1     818    5280     264    5267
CTETRA     20044       1    2039    2761    2381    4798
CTETRA     20045       1    2207     609    2030    1906
CTETRA     20046       1    2474    1881    4953    4949
CTETRA     20047       1    3354    5728    3419    2305
CTETRA     20048       1     962    2259    3081    4963
CTETRA     20049       1     131    2994    3081    2611
CTETRA     20050       1     818     652    5285    5284
CTETRA     20051       1    5716    5717    2869     296
CTETRA     20052       1    1994    3459     982    3461
CTETRA     20053       1    4962    2258    4932    4931
CTETRA     20054       1    2054    4944    2055    4939
CTETRA     20055       1     134    2753    2056    2258
CTETRA     20056       1    2753    4982    4933    4932
CTETRA     20057       1    1869    4363    4362    4380
CTETRA     20058       1    2493    4351    4352    4348
CTETRA     20059       1    1518    1517    2320    2303
CTETRA     20060       1     407     865     866    1262
CTETRA     20061       1    1712    2057    2611    2055
CTETRA     20062       1    1995    3460    2932    5720
CTETRA     20063       1    2611    3081    4938    4965
CTETRA     20064       1    3027    3824     242    3869
CTETRA     20065       1     712    2494    1646    2492
CTETRA     20066       1    2714     409     102     542
CTETRA     20067       1     308    3013    3034    2345
CTETRA     20068       1    1346    4592    1349    2344
CTETRA     20069       1    1298    1333    1284    1334
CTETRA     20070       1    3843    2907    3823    3845
CTETRA     20071       1    2691    3849    3094    3820
CTETRA     20072       1    1565     833    1570     504
CTETRA     20073       1     243    3062    3867    3063
CTETRA     20074       1    2284     666    2795    2282
CTETRA     20075       1    1646    2494    2715    3671
CTETRA     20076       1    2174    2167    2176    2175
CTETRA     20077       1    1349    1348    4591    4486
CTETRA     20078       1    2295    2297    3668    3848
CTETRA     20079       1    1307    2513    2639    2322
CTETRA     20080       1    2965     554     555    2343
CTETRA     20081       1    2678    2315    3476    3563
CTETRA     20082       1    2015    2315     750    2012
CTETRA     20083       1     853    2315    2678    3563
CTETRA     20084       1    2015    2315    3770    3476
CTETRA     20085       1     853    2421    3563    2678
CTETRA     20086       1     356    4663    2189    2403
CTETRA     20087       1     855    2012    2315    2314
CTETRA     20088       1    1963    1961    1975    1386
CTETRA     20089       1     355    2190     356    1815
CTETRA     20090       1    2189     556     554    4643
CTETRA     20091       1    1898    1763    1885     219
CTETRA     20092       1    2997    2343    4606    2965
CTETRA     20093       1     554      47     556     555
CTETRA     20094       1    3653     442    3466    1313
CTETRA     20095       1     913    4075    1162    2433
CTETRA     20096       1    2977    3064    1985    5013
CTETRA     20097       1    1286     725    2143    2697
CTETRA     20098       1    1341    1168    2624    3011
CTETRA     20099       1     533    5083    5087    5086
CTETRA     20100       1    2329    1092     564    1271
CTETRA     20101       1    1162    4511    5791    4514
CTETRA     20102       1     444    3602    3628    3629
CTETRA     20103       1    2150    3609    3602    3468
CTETRA     20104       1    1074    4466    4635    3088
CTETRA     20105       1    2650    2478    4887    4466
CTETRA     20106       1    2478    3017    2845    4887
CTETRA     20107       1    2786    2333    2314    3790
CTETRA     20108       1    3770    3771    2333    2012
CTETRA     20109       1    2014    3562    2015    3477
CTETRA     20110       1    1162    2558    4099    4088
CTETRA     20111       1    2120    1347      50     556
CTETRA     20112       1    2527    2344    4625    4608
CTETRA     20113       1    4644     554    2527     556
CTETRA     20114       1    2315     750    2012     856
CTETRA     20115       1    2527    2344    4608    4609
CTETRA     20116       1    2120    2119    4645    4664
CTETRA     20117       1    1111    1311    1309    1308
CTETRA     20118       1     556     355    2120    2190
CTETRA     20119       1    1279    1760     184     185
CTETRA     20120       1    1525    1281    5726    5725
CTETRA     20121       1    1357    1622    1356     285
CTETRA     20122       1     593     592    2003    2006
CTETRA     20123       1     185    1279    1528    1281
CTETRA     20124       1    1395    3655    1393    2902
CTETRA     20125       1    4680    4710    2633    2505
CTETRA     20126       1    1373    2392    2618    5484
CTETRA     20127       1    5579    5555    2196    1621
CTETRA     20128       1    2054    2056    4940    2258
CTETRA     20129       1     183     179     565     184
CTETRA     20130       1    1072    2558    1162    1895
CTETRA     20131       1    2113    2462    1281    5724
CTETRA     20132       1    1101    1632    3684    2758
CTETRA     20133       1    1617     880    2391    3007
CTETRA     20134       1    3030    3890    2664    3891
CTETRA     20135       1    2664    2870    3891    3918
CTETRA     20136       1    3007    2391    3732    3739
CTETRA     20137       1    2401    4526    4527    4525
CTETRA     20138       1    2494    3844    2715    3842
CTETRA     20139       1    2644    3675    3699    3674
CTETRA     20140       1    2494    3842    2715    3671
CTETRA     20141       1    3079    4501    4525    4500
CTETRA     20142       1    1667    1351    1666    1354
CTETRA     20143       1    1162    2433    4075    4089
CTETRA     20144       1    2370    4107    4119    4108
CTETRA     20145       1     384    2943    4505    4506
CTETRA     20146       1    1308    2639    3018    2321
CTETRA     20147       1    1963    2761    2039    1966
CTETRA     20148       1     355    1815    2784    2190
CTETRA     20149       1    2639    2677    1242    2322
CTETRA     20150       1     357    2404    2190    2403
CTETRA     20151       1    3543    3018    3582    3061
CTETRA     20152       1     355     466      50    2120
CTETRA     20153       1    1183    3488    3487    3553
CTETRA     20154       1    2053    1566     544    2011
CTETRA     20155       1    1386    4818    4819    4805
CTETRA     20156       1    2761    2404    4798    4799
CTETRA     20157       1    2822    2677    2674    3550
CTETRA     20158       1    1162    4511    4088    5791
CTETRA     20159       1    1291    2886    2887    3970
CTETRA     20160       1    1746     270    1747    1744
CTETRA     20161       1    1747    1744    4001    4000
CTETRA     20162       1     271    1382    3976    1747
CTETRA     20163       1     702     242    2276    2899
CTETRA     20164       1    2755    5123    5096    5127
CTETRA     20165       1    1419    1433    5157    1418
CTETRA     20166       1    2448    1283    2454    3721
CTETRA     20167       1    2289    1601    3092    2216
CTETRA     20168       1    2306    2307     109    2313
CTETRA     20169       1    2832    5130    2830    5118
CTETRA     20170       1    1665    2832    5130    2830
CTETRA     20171       1     783    5140    1419    5141
CTETRA     20172       1     840     841    2293     833
CTETRA     20173       1    1590    1694     271    1382
CTETRA     20174       1    1993    3271    2005    3268
CTETRA     20175       1    1775    2034     485     523
CTETRA     20176       1    2528    2028    3286    3285
CTETRA     20177       1     522    3435     523    3434
CTETRA     20178       1    1522    5055    5054    5084
CTETRA     20179       1     478    5069    5074    5075
CTETRA     20180       1    2528    2037    3261    3286
CTETRA     20181       1     523     485     483    3925
CTETRA     20182       1    3927     484    3900    2641
CTETRA     20183       1    2011    1566     544    1132
CTETRA     20184       1    3656    2743    3659    2902
CTETRA     20185       1    2330    3809    3466    2632
CTETRA     20186       1    2331     557    1749    2743
CTETRA     20187       1    2005    2036    3280    3271
CTETRA     20188       1    1094    3802    3811    3814
CTETRA     20189       1    4625    4644     554    2527
CTETRA     20190       1     159    3281    2005    3280
CTETRA     20191       1     556    2190    4664    4663
CTETRA     20192       1     556     554    4643    4644
CTETRA     20193       1    2120     556    4644    2527
CTETRA     20194       1    2750    5356    2395    5348
CTETRA     20195       1      80    2538    2418      82
CTETRA     20196       1    2015    2315    2678     750
CTETRA     20197       1    2678    2015    3476    2315
CTETRA     20198       1     355    2067    2119    4696
CTETRA     20199       1    1420    2678    2014    2405
CTETRA     20200       1    2014    2678    2015    3562
CTETRA     20201       1    2405    3563    2421    2678
CTETRA     20202       1    3564    2014    3562    2678
CTETRA     20203       1    2678    3564    2405    3563
CTETRA     20204       1    2678    2015    3562    3476
CTETRA     20205       1    2500    1856    1947    5300
CTETRA     20206       1    1851    1906    2209     325
CTETRA     20207       1    2602    2958    2500    1947
CTETRA     20208       1    2090    1047    1671    1293
CTETRA     20209       1    1147    5729    1148    5730
CTETRA     20210       1    2335    1473    2593    3401
CTETRA     20211       1    2335    1145    3432    3427
CTETRA     20212       1    2461    3900     791    3799
CTETRA     20213       1    2461    2760     484    3798
CTETRA     20214       1    1263    2855    1265    1267
CTETRA     20215       1    2460    5724    5723    3813
CTETRA     20216       1    2000     484     485    3926
CTETRA     20217       1     848     741     849    5039
CTETRA     20218       1     819     811    1161    3068
CTETRA     20219       1     742    1891     741    1893
CTETRA     20220       1    2981    5127    2754    5035
CTETRA     20221       1     335    2623    1152     340
CTETRA     20222       1     389    3075     436     983
CTETRA     20223       1    1132    1287    3971    3086
CTETRA     20224       1    3017     759    2845    4967
CTETRA     20225       1    3076    2448    3719    3721
CTETRA     20226       1    2070    3201    3188    3189
CTETRA     20227       1     484     397    2760     164
CTETRA     20228       1     493    2407     491    2078
CTETRA     20229       1    1309    2421    2321    2929
CTETRA     20230       1    2321    2929    2410    1308
CTETRA     20231       1    2420    2403    4694    1548
CTETRA     20232       1     853     854    2984    2619
CTETRA     20233       1    2180    2472    1327    2686
CTETRA     20234       1    1055    1053    5238    1054
CTETRA     20235       1    4662    2403    2420    2189
CTETRA     20236       1    2421    2929    3545    2321
CTETRA     20237       1    2421    3548    2321    3545
CTETRA     20238       1    3565    2405    3563    2421
CTETRA     20239       1    2678     851     856     853
CTETRA     20240       1    1834    1962    2022    1963
CTETRA     20241       1    2984     853    2619    3546
CTETRA     20242       1    1054    1050    1056    1053
CTETRA     20243       1     774    2503    1831    2596
CTETRA     20244       1      82    2538    2418    3054
CTETRA     20245       1     216    2504    2501    4489
CTETRA     20246       1    3059    2301    4584    4582
CTETRA     20247       1    2873     978    1255    2871
CTETRA     20248       1    2272    2851    3793    3782
CTETRA     20249       1    1683    1300    3014    1828
CTETRA     20250       1     419    2123     978     981
CTETRA     20251       1     750     752    1840    1421
CTETRA     20252       1      22    3004    1699    2285
CTETRA     20253       1    2017    1378     214     471
CTETRA     20254       1     754     755    4191    3051
CTETRA     20255       1    1600    4201    1828    4202
CTETRA     20256       1    1236    2503    1312    1217
CTETRA     20257       1    2272    2851    3782    2332
CTETRA     20258       1    2733    1633    3739    2850
CTETRA     20259       1    1145    1144      18    1473
CTETRA     20260       1    2475    4752    1292    1293
CTETRA     20261       1    1144    1473    1145    5730
CTETRA     20262       1    1882    5270    5272    5273
CTETRA     20263       1     653    4445     654    4446
CTETRA     20264       1    1203      17    1856     201
CTETRA     20265       1    1949    1478    2952    2305
CTETRA     20266       1    4675    4727    2519    4676
CTETRA     20267       1    1388    2485    5303    1002
CTETRA     20268       1    2801    4425    2479    2603
CTETRA     20269       1    2204    1858    2111    2047
CTETRA     20270       1    1473    2593    3401    3418
CTETRA     20271       1    3401    3432    2335    1473
CTETRA     20272       1    1393    2952    1282    3658
CTETRA     20273       1    1296     866    2026     942
CTETRA     20274       1    2259    3081    4963    4966
CTETRA     20275       1    2827    1891    4989     849
CTETRA     20276       1    3075    4990    1892    4991
CTETRA     20277       1    2138     733    2993    2007
CTETRA     20278       1    1982     365    3048    3095
CTETRA     20279       1     365    3048     366     368
CTETRA     20280       1    1253    3528    1254    3513
CTETRA     20281       1    2475    4752    2779    4751
CTETRA     20282       1    2757    1254    2358    2424
CTETRA     20283       1    1062    4673    4653    4672
CTETRA     20284       1    4669    1868    4700    2219
CTETRA     20285       1    2224    4669    1842    4670
CTETRA     20286       1    2236    2402    1660    1802
CTETRA     20287       1     254    1477    1460     963
CTETRA     20288       1      78      79      75    1728
CTETRA     20289       1     848    5019     849    3017
CTETRA     20290       1     847    1286    1289     725
CTETRA     20291       1     740    5092     741     743
CTETRA     20292       1    1092    2331    1094     363
CTETRA     20293       1    2511    5111    5114    5115
CTETRA     20294       1     441    2460     790    2463
CTETRA     20295       1    2457    2214    3993    2591
CTETRA     20296       1     627     374     537     665
CTETRA     20297       1    3076    1338    3720    3717
CTETRA     20298       1    2046     436     439    2515
CTETRA     20299       1     896    1567     927    1507
CTETRA     20300       1     495    2185    3931    3937
CTETRA     20301       1    2184    2185    3938    1132
CTETRA     20302       1     494     495    2185    3931
CTETRA     20303       1    1677    1958    2248    2245
CTETRA     20304       1     826    2415    1444    1441
CTETRA     20305       1    1862    2842    2246    2247
CTETRA     20306       1    1208    5236    5222    5223
CTETRA     20307       1    4769    2228     864    4776
CTETRA     20308       1    1725    2411    3583    3581
CTETRA     20309       1    3085    5233    1441    5236
CTETRA     20310       1    3076    1283    3721    3720
CTETRA     20311       1    1308    1311    1309    2929
CTETRA     20312       1    1112    2419    1500    2420
CTETRA     20313       1    2936    1444    1443     353
CTETRA     20314       1    2795    3567    3619    3620
CTETRA     20315       1     492    5227    5236    5228
CTETRA     20316       1    2407     493     491    1390
CTETRA     20317       1    3076    1283    1338    1339
CTETRA     20318       1    1961    1966    4798    4809
CTETRA     20319       1    2039    2761    2590    2381
CTETRA     20320       1    2680    2395    5351    5349
CTETRA     20321       1    1673    2866    5246    1675
CTETRA     20322       1    1873    1662    1665    5136
CTETRA     20323       1    1665    2832    5117    5130
CTETRA     20324       1     840    2290     833    2293
CTETRA     20325       1    2495     744    2661     754
CTETRA     20326       1    4750    2637    4751    4760
CTETRA     20327       1    1041    3223    3201    1040
CTETRA     20328       1    1034    2214    1038    1036
CTETRA     20329       1     810    2696    2698    2699
CTETRA     20330       1     783    5141    5146    5140
CTETRA     20331       1    2623    5097    2624    5081
CTETRA     20332       1    2780    1382    1747    3977
CTETRA     20333       1    2120    4626     472    2527
CTETRA     20334       1     216     214    4611    4594
CTETRA     20335       1    4645    4646    4665    2119
CTETRA     20336       1     473    2120    2119    4646
CTETRA     20337       1    2120    4626    2527    4644
CTETRA     20338       1    4627    2120    4626     472
CTETRA     20339       1    2120    4644     556    4664
CTETRA     20340       1    2120     556    2190    4664
CTETRA     20341       1    2220    2219     995    2224
CTETRA     20342       1     342    1630    2328    2009
CTETRA     20343       1     470    2118     473    2066
CTETRA     20344       1      21    2982    2286    2273
CTETRA     20345       1     465     472     214    1350
CTETRA     20346       1     355    2120    2190    2119
CTETRA     20347       1    2314    3770    2315    3769
CTETRA     20348       1    2015    2678    2014     751
CTETRA     20349       1    3771    2333    2016    3781
CTETRA     20350       1    2013    2285    2674    3560
CTETRA     20351       1    3562    2014    2674    3477
CTETRA     20352       1     750    2315    2678     856
CTETRA     20353       1    1836    2322    2959    2513
CTETRA     20354       1    2446    2965    4642    2189
CTETRA     20355       1    2965    4643     554    4624
CTETRA     20356       1    2965    2189    4643    4642
CTETRA     20357       1    2189     556    4643    4663
CTETRA     20358       1    2189    2420    4662    4661
CTETRA     20359       1    3999    2457    2214    3993
CTETRA     20360       1    2075    3954    3948    3949
CTETRA     20361       1    3015    2832    2831    5118
CTETRA     20362       1    2507    2831    1876    5131
CTETRA     20363       1    2637    4751    4760    2475
CTETRA     20364       1     388     373    2158     389
CTETRA     20365       1    2457    2927    3994    1746
CTETRA     20366       1    2524    5105    5133    5139
CTETRA     20367       1    1049    2475    2865    1292
CTETRA     20368       1    1169    5124    2831    5119
CTETRA     20369       1    1905    1904    1902    2261
CTETRA     20370       1    3593    5206    5852    3591
CTETRA     20371       1    2406    3583    1725    2411
CTETRA     20372       1    2406    2411    2410    3583
CTETRA     20373       1    3018    3582    3061    2410
CTETRA     20374       1    2410    2411    3578    3583
CTETRA     20375       1    3544    3545    3578    2410
CTETRA     20376       1    2410    3544    3018    3582
CTETRA     20377       1    2410    3578    2411    2929
CTETRA     20378       1    1446    3061     860    2020
CTETRA     20379       1    1328    1725    3581    3571
CTETRA     20380       1    1347     472    1350    2527
CTETRA     20381       1    2865    4761    1292    4762
CTETRA     20382       1    2690    2907    2297    3847
CTETRA     20383       1    1457    1583    2825    1582
CTETRA     20384       1    1226    2278    2281    2703
CTETRA     20385       1    2538      79      82      80
CTETRA     20386       1    2704    2715    3844    3843
CTETRA     20387       1    1009    1167    2167    2357
CTETRA     20388       1    2907    2297    3847    3846
CTETRA     20389       1    1955    2978    2924    2976
CTETRA     20390       1     143     461     142    1977
CTETRA     20391       1    2494    2704    2715    3844
CTETRA     20392       1    2354    4543    4482    4548
CTETRA     20393       1    1851    1686     325    2209
CTETRA     20394       1    2490    2057    4941    4945
CTETRA     20395       1    1886    4316    1439    2861
CTETRA     20396       1    4946    2055    2057    4944
CTETRA     20397       1     873    1512    2312    1910
CTETRA     20398       1    2258    2257    4931    4962
CTETRA     20399       1    2055    2611    4938    4946
CTETRA     20400       1    2401    4526    4094    5796
CTETRA     20401       1    2056    2055    4944    2057
CTETRA     20402       1    1881    2257    2258    4962
CTETRA     20403       1    2949    2782    2095    5050
CTETRA     20404       1    2611    2057    4946    2055
CTETRA     20405       1     595     112    2150    2151
CTETRA     20406       1    1696    2993    2650    2845
CTETRA     20407       1    2271    1395    3643    1025
CTETRA     20408       1     761     760     759    1751
CTETRA     20409       1     442    3466    1313     443
CTETRA     20410       1    1207    1025    1948    1026
CTETRA     20411       1      28    2902      30    3652
CTETRA     20412       1     262    1409    1412    1304
CTETRA     20413       1    2917    3610    3608    3611
CTETRA     20414       1     852    3769    2315    3475
CTETRA     20415       1    3473    3474    2339    2931
CTETRA     20416       1    2871     980    1615    1832
CTETRA     20417       1    2615    2411    3571    3572
CTETRA     20418       1     357    2420    1548    2403
CTETRA     20419       1    1919    2931    2483    2339
CTETRA     20420       1    2419    2420    4661    4692
CTETRA     20421       1    5205    5203    5199    1809
CTETRA     20422       1     233    1172    2913    2897
CTETRA     20423       1    2145    1654    2535    2537
CTETRA     20424       1    1453    4052    4053    4042
CTETRA     20425       1    1114    4171    1256    4448
CTETRA     20426       1    1124    4091    1125    1123
CTETRA     20427       1    2812    2666     861    4157
CTETRA     20428       1    1457    1458    1823    1581
CTETRA     20429       1      91    1076     545    1226
CTETRA     20430       1    2520    3878     494    3905
CTETRA     20431       1    5091    5092    5093     741
CTETRA     20432       1    1753    3017    2478    1153
CTETRA     20433       1     494    2185    3905    3931
CTETRA     20434       1     494     495    3931    3903
CTETRA     20435       1    2003    4950    2815    2814
CTETRA     20436       1     816     819    2884     821
CTETRA     20437       1    1718    2572    3003    3145
CTETRA     20438       1    1288     494    2185    3905
CTETRA     20439       1    1569    1746    2927    2591
CTETRA     20440       1     760    2827     759    1751
CTETRA     20441       1     665     533     374    2651
CTETRA     20442       1    1098     494     495    2185
CTETRA     20443       1    1061    2849    2159    1060
CTETRA     20444       1    2826    4989    2827    1891
CTETRA     20445       1     849     741    5040    5039
CTETRA     20446       1     390    1893    5095    5042
CTETRA     20447       1     536    2158    5045    2159
CTETRA     20448       1    2754    5127    2755    5096
CTETRA     20449       1    2324     985    1093     362
CTETRA     20450       1     849    3017    5019    4988
CTETRA     20451       1    1892    1891    5041    4990
CTETRA     20452       1    1153    2478    5018    5019
CTETRA     20453       1    1891    2203     742     849
CTETRA     20454       1    2769    2768    3709    2368
CTETRA     20455       1    1531    2469    1533    3014
CTETRA     20456       1    1246     578    2176     576
CTETRA     20457       1    2824    4037    4039    4040
CTETRA     20458       1    1250    1246    4494    4495
CTETRA     20459       1    1523    4763    2776    5249
CTETRA     20460       1     652    5282    5285    5284
CTETRA     20461       1    1054    2131    5281    5217
CTETRA     20462       1     103    2839    3624    1345
CTETRA     20463       1     104    3631    3632    3630
CTETRA     20464       1    2283    2864    5237    5226
CTETRA     20465       1    2796    2792    4731    4734
CTETRA     20466       1     506     505    2917      79
CTETRA     20467       1     818    5267    5268    5285
CTETRA     20468       1    1845    1209    2688     622
CTETRA     20469       1     275    1026    3638    3637
CTETRA     20470       1    2824    1718    1719    2825
CTETRA     20471       1    2183    4811    1868    4700
CTETRA     20472       1    1371    1372    4819    4820
CTETRA     20473       1    2183    2219    4668    4700
CTETRA     20474       1    1371    1503    1372    4820
CTETRA     20475       1    3010    2066    4698    4667
CTETRA     20476       1    1898    2587    1897    2938
CTETRA     20477       1    2219    1868    4700    2183
CTETRA     20478       1    1460    2388    1461    1476
CTETRA     20479       1     231    1547    2424    2358
CTETRA     20480       1     682     659    1275    2010
CTETRA     20481       1    1763    2585    2587    2940
CTETRA     20482       1    2425    3515    3521    3520
CTETRA     20483       1     562    5409    5410    5399
CTETRA     20484       1     963    5406    1897    1899
CTETRA     20485       1     221    2219    2183    1868
CTETRA     20486       1    2777     973    2607    2409
CTETRA     20487       1    3775    2122    2274    2874
CTETRA     20488       1    2594    4613    2502    4631
CTETRA     20489       1    1255    3483    3513    3522
CTETRA     20490       1    2382     698    2695     981
CTETRA     20491       1     963    5407    1897    5406
CTETRA     20492       1    2956    3501    2584    5309
CTETRA     20493       1     408    2461    2237    2760
CTETRA     20494       1    2002    1997    2505    2202
CTETRA     20495       1    2372    4885    2371    1153
CTETRA     20496       1    2435    2885    3467    2330
CTETRA     20497       1    1696    3017    2845    2478
CTETRA     20498       1    2632     363    3812    1313
CTETRA     20499       1     364    3809    3804    3805
CTETRA     20500       1     443    2632    2330    3466
CTETRA     20501       1    2647     120    2649    2648
CTETRA     20502       1    2648    4732    2541    2649
CTETRA     20503       1    3809    2330     364    2632
CTETRA     20504       1    2520     364     494    3878
CTETRA     20505       1     364     494    3878    3904
CTETRA     20506       1    3024     576    4554    4553
CTETRA     20507       1    4486    1355    1346    1348
CTETRA     20508       1    2172    4575    4574    4576
CTETRA     20509       1    2854    4046    1580    1582
CTETRA     20510       1    1349    2343    4592    4591
CTETRA     20511       1    1325     453    2125     456
CTETRA     20512       1    1648    1646    2715    3841
CTETRA     20513       1    2401    2426    4111    2909
CTETRA     20514       1     801    1250    1251    4550
CTETRA     20515       1    3543    3582    3574    3023
CTETRA     20516       1    2784    2404    4799    2190
CTETRA     20517       1    2523    4697    4808    2522
CTETRA     20518       1    2761    2404    2381    4798
CTETRA     20519       1    1386    4809    4805    4806
CTETRA     20520       1    1585    1576    5367    5383
CTETRA     20521       1    3056    2992    2680    2395
CTETRA     20522       1    4798    2381    4795    2404
CTETRA     20523       1    2404    2190    4695    4799
CTETRA     20524       1    1693    5318    2543     351
CTETRA     20525       1    1961    4805    4809    4802
CTETRA     20526       1    2401    2941    4111    4061
CTETRA     20527       1    1279    3658    2952    5727
CTETRA     20528       1    1313     363    3812    2331
CTETRA     20529       1    2845    2478    2650    1696
CTETRA     20530       1    4986     592     761    4987
CTETRA     20531       1    4986    4969    4968     760
CTETRA     20532       1     760     759    2827    4967
CTETRA     20533       1    3075    1892    4990    2826
CTETRA     20534       1     733    2210    2993    2007
CTETRA     20535       1    2151     595    3602    2150
CTETRA     20536       1    1795    5709    1320    5710
CTETRA     20537       1    1911    1604     140    1602
CTETRA     20538       1     330    2994     283     318
CTETRA     20539       1    1323    2109    2973    2235
CTETRA     20540       1    2801    2341    3388    4411
CTETRA     20541       1    2811    4412    4411    4419
CTETRA     20542       1     655    2479    2109    2334
CTETRA     20543       1    1319    1318    3430    5708
CTETRA     20544       1    1478    1473    3418    2593
CTETRA     20545       1    1935    2474    4954    4957
CTETRA     20546       1     962    2259    4963    4961
CTETRA     20547       1    4895    2474    3095    2945
CTETRA     20548       1    1478    2952    2305    5728
CTETRA     20549       1    1881    4962    4947    2257
CTETRA     20550       1    2054    3081    4966    2055
CTETRA     20551       1    2753    4972    4982    4983
CTETRA     20552       1    1982    3095    3048    2202
CTETRA     20553       1    1144      12     279      13
CTETRA     20554       1    2480    4479    4854    5813
CTETRA     20555       1    1690    4360    4365    4359
CTETRA     20556       1     791     792    3901    3900
CTETRA     20557       1    2641     791     484    3900
CTETRA     20558       1    1901    2000    3934    3926
CTETRA     20559       1     361     494     364    3803
CTETRA     20560       1    4993    2159    2158    3098
CTETRA     20561       1     155     171     658     665
CTETRA     20562       1     928    2642    3936     495
CTETRA     20563       1    1582    1456    4044    4042
CTETRA     20564       1    1901    2641    3927     929
CTETRA     20565       1    3805    2885    3859    2884
CTETRA     20566       1    3022    3734    2390    3740
CTETRA     20567       1    2175    2912    4528    4497
CTETRA     20568       1    3022    2496    2390    3734
CTETRA     20569       1    2171     576    4542    4496
CTETRA     20570       1    3034    4529    2345    4504
CTETRA     20571       1     709    2296    2704    2494
CTETRA     20572       1    1553    2621    2835    2867
CTETRA     20573       1    2496    3694    2390    3734
CTETRA     20574       1    4554    2988    4541    4540
CTETRA     20575       1    2660    2401    4526    4094
CTETRA     20576       1    2328    2759    2758    2701
CTETRA     20577       1    3022    2390    2391    3740
CTETRA     20578       1    1472    2492    2496    3726
CTETRA     20579       1    2460    2461    5723    2237
CTETRA     20580       1     173    2641     792     791
CTETRA     20581       1      31     557      29     565
CTETRA     20582       1     164    2460    2461     791
CTETRA     20583       1    2461    2760    3798    5722
CTETRA     20584       1    1457    2857    2948    1453
CTETRA     20585       1     790    3901    1095    3801
CTETRA     20586       1    2825    1456    1582    4042
CTETRA     20587       1     390     389    5042    5095
CTETRA     20588       1    1893    5041     741    5094
CTETRA     20589       1     790    2324    1094    1095
CTETRA     20590       1    1893     741     740    5091
CTETRA     20591       1    1893     740    5090    5091
CTETRA     20592       1    1890    1893     740    5090
CTETRA     20593       1    1718    2572    3145    3134
CTETRA     20594       1    2184    1096     495    2185
CTETRA     20595       1     832     838     837     841
CTETRA     20596       1    1891    1893    5041     741
CTETRA     20597       1    1632      86    2400    3685
CTETRA     20598       1    2457    2214    1034    1036
CTETRA     20599       1    1839    2314    2786    2333
CTETRA     20600       1    3791    2786    2333    3781
CTETRA     20601       1    3792    3781    2851    2786
CTETRA     20602       1    1036    3997    4006    3998
CTETRA     20603       1    1037    1039    4004    4003
CTETRA     20604       1     549    2368    2766    2497
CTETRA     20605       1    2016    3782    3781    2332
CTETRA     20606       1    3772    2016    3782    3781
CTETRA     20607       1    2501    2504    4490    4489
CTETRA     20608       1     383     911    4535    4537
CTETRA     20609       1     383    2912     911    4537
CTETRA     20610       1     911    2173    4499    4498
CTETRA     20611       1     911    2912    4498    4537
CTETRA     20612       1    3005    2789     384    4507
CTETRA     20613       1      70      71    2370      34
CTETRA     20614       1    2787    4536    4525    4524
CTETRA     20615       1     710    2492    2748    2494
CTETRA     20616       1      36    4221    4222    4065
CTETRA     20617       1    3082    3712    3711    3716
CTETRA     20618       1    1683    1333    1531    1299
CTETRA     20619       1    2401    2426    4095    4111
CTETRA     20620       1    3007    2390    3693    3732
CTETRA     20621       1    2529    2709    2961    3047
CTETRA     20622       1     911     383     384     382
CTETRA     20623       1    2213    2760    2932     483
CTETRA     20624       1     909     475    1059     478
CTETRA     20625       1    3045     373     627    5053
CTETRA     20626       1    2612    1266    1267    1303
CTETRA     20627       1     373    2158    5077     536
CTETRA     20628       1    1222    3230    3234    2829
CTETRA     20629       1    2752    2161    4972    2160
CTETRA     20630       1    2213     483     485     484
CTETRA     20631       1    1060    5046     909    5079
CTETRA     20632       1     478    1060     909    5079
CTETRA     20633       1    4975    2923    4997    4996
CTETRA     20634       1    2753    2056    2258    4933
CTETRA     20635       1    2161    4972    4982    2753
CTETRA     20636       1    2088    2668    4299    1682
CTETRA     20637       1     157    2052    1578    1205
CTETRA     20638       1    5046     909    2159    1060
CTETRA     20639       1    2071    4318    4302    4303
CTETRA     20640       1    3938    1287    2185    1288
CTETRA     20641       1    1097     362    1092    1093
CTETRA     20642       1    2711    2681    3897    3896
CTETRA     20643       1     592    4929    4928    4986
CTETRA     20644       1    2827    3017     849    4988
CTETRA     20645       1     363     364    2632    3812
CTETRA     20646       1     363    3803     364    3812
CTETRA     20647       1     363     361     364    3803
CTETRA     20648       1     361    3802    1095    3903
CTETRA     20649       1    1269     361     494     364
CTETRA     20650       1     593    2007     592    2006
CTETRA     20651       1    3812    3809    3804     364
CTETRA     20652       1     364    3803     494    3904
CTETRA     20653       1      30    2743    3657    2902
CTETRA     20654       1    1127    2759    3794      85
CTETRA     20655       1     854      42     851     852
CTETRA     20656       1    2016    2332     751    2458
CTETRA     20657       1    1326    4621    4604    4603
CTETRA     20658       1    2742    2446    2965    4642
CTETRA     20659       1    4642    2965    2742    4623
CTETRA     20660       1    1326    2188    2575    4621
CTETRA     20661       1    2012    1839     855    1840
CTETRA     20662       1    1442    1441    3085    2415
CTETRA     20663       1    3001    2486    1977    3854
CTETRA     20664       1     856     852    2315     853
CTETRA     20665       1    2984    3546    2619    3547
CTETRA     20666       1    2742    2446    4642    4641
CTETRA     20667       1    2965    2189     554    4643
CTETRA     20668       1    1349    4592    2343    2344
CTETRA     20669       1    2343    2344    4592    4607
CTETRA     20670       1    1354    1348    3029    2891
CTETRA     20671       1    2343    2965    4624    4606
CTETRA     20672       1    2343    4624    2965     554
CTETRA     20673       1    2184    1566    2010    1132
CTETRA     20674       1     967      84    1128    1193
CTETRA     20675       1     555    2997    2965    2343
CTETRA     20676       1    2986    3019    2354    4548
CTETRA     20677       1    2337    3778    2314    3769
CTETRA     20678       1    2114     653    5836     654
CTETRA     20679       1    1935    4837    1937    4836
CTETRA     20680       1     202    1857     210    1715
CTETRA     20681       1     920     922    4155    4129
CTETRA     20682       1    1858    2110    1937    2111
CTETRA     20683       1    2474     962    4953    1881
CTETRA     20684       1     920    2889    4156    4175
CTETRA     20685       1     278     273     584     538
CTETRA     20686       1    1263    1265    2211    1268
CTETRA     20687       1    1060    4995    2923    2849
CTETRA     20688       1    1712    2058    2490    2057
CTETRA     20689       1    1799    1795     586    1797
CTETRA     20690       1     357    2403    2189    2420
CTETRA     20691       1    2929    1311    1309    2615
CTETRA     20692       1    1189     863    4778    4770
CTETRA     20693       1    2419    2446    4661    2420
CTETRA     20694       1    2189      53     357    2446
CTETRA     20695       1    1500    1548    4785    1501
CTETRA     20696       1     779     778    2931    2414
CTETRA     20697       1    1500    4779    2420    4692
CTETRA     20698       1    2419    1500    2420    4692
CTETRA     20699       1    1500    1501    4779    4778
CTETRA     20700       1    2803    1725    3571    2615
CTETRA     20701       1    2446    2189    4642    4661
CTETRA     20702       1    2323    2419    2446    4661
CTETRA     20703       1    1189    2419    4771    1500
CTETRA     20704       1    1259    2077    2076    2246
CTETRA     20705       1     133    1262    1479     405
CTETRA     20706       1     988    2054    2259    2258
CTETRA     20707       1    1855     273    1320     586
CTETRA     20708       1    2054    2258    4960    2259
CTETRA     20709       1    2832    1665    1664    2830
CTETRA     20710       1    1744    2457    1746    1015
CTETRA     20711       1    1015    1034    1039    2457
CTETRA     20712       1     233    3028    1176    2897
CTETRA     20713       1    1565    2290    2832    5117
CTETRA     20714       1     905    3993    2927    3965
CTETRA     20715       1    1746    1744    1747    4000
CTETRA     20716       1    2666    4174    2889     861
CTETRA     20717       1    1747    1745    1746    3995
CTETRA     20718       1    3064    4881    4880    5013
CTETRA     20719       1    2250    2843    2844    2807
CTETRA     20720       1    1681    5245    1675    1958
CTETRA     20721       1      29    1395    1393    2902
CTETRA     20722       1     426    2442    1345     105
CTETRA     20723       1    2418    1936    3647    2442
CTETRA     20724       1    2442     105    3639    3640
CTETRA     20725       1     105     275    3639    3634
CTETRA     20726       1    1766    1818    3126    3128
CTETRA     20727       1     858    2178      42     859
CTETRA     20728       1    2339    2337    3769    3768
CTETRA     20729       1    3016    2835    3876    3832
CTETRA     20730       1    2675    4638    4620    4619
CTETRA     20731       1    2984    3558     853    3546
CTETRA     20732       1    1109     358      44     357
CTETRA     20733       1    2076    2245    2246    5251
CTETRA     20734       1      47    2527    2344     554
CTETRA     20735       1    2267     418    1831     975
CTETRA     20736       1    2012    2332    2016    2333
CTETRA     20737       1    2412    4187    2773    2581
CTETRA     20738       1    1516    2359    3988    3923
CTETRA     20739       1    3683    1101    3748    1107
CTETRA     20740       1     472    1350    2527    4609
CTETRA     20741       1    1104    2274    2851    1107
CTETRA     20742       1    1215    2729    1216    1218
CTETRA     20743       1      47    2344    1349    2343
CTETRA     20744       1    2061    2252    2065    2643
CTETRA     20745       1    2012    3771    2333    2016
CTETRA     20746       1     920     922    2889    4175
CTETRA     20747       1    2333    2016    3781    2332
CTETRA     20748       1    3781    3791    3780    2333
CTETRA     20749       1    1450    2666     920    2889
CTETRA     20750       1    1350     215     214    1234
CTETRA     20751       1    2574    2343    4591    4606
CTETRA     20752       1     751     749    1420    2013
CTETRA     20753       1    2786    2701    3792    3791
CTETRA     20754       1     736    1918    2188    3035
CTETRA     20755       1    2083    1554    2684    2439
CTETRA     20756       1    3061    1180    2398    3023
CTETRA     20757       1    3545    3546    2619    2421
CTETRA     20758       1    2266    2270    3586    3593
CTETRA     20759       1    1112    1500    1548    2420
CTETRA     20760       1    2619    3545    2929    3580
CTETRA     20761       1    2619    2614    3573    3580
CTETRA     20762       1    1349    1347    1346    2344
CTETRA     20763       1      83    1122    3795    1127
CTETRA     20764       1     638     639    2590     863
CTETRA     20765       1     429    2346     105     275
CTETRA     20766       1    1046    1058    2131    1054
CTETRA     20767       1    2442     105    2346    3639
CTETRA     20768       1    1052    2132     652     993
CTETRA     20769       1     784    2242    2241    2240
CTETRA     20770       1    1066    1063    4021    1224
CTETRA     20771       1    1419    5141    5155    5142
CTETRA     20772       1    5146    1417    5136    1663
CTETRA     20773       1     447    1989     448     446
CTETRA     20774       1    1739    2738    1183    1740
CTETRA     20775       1    1416    1873    2636    1418
CTETRA     20776       1    2217    2780    2721    4016
CTETRA     20777       1    2721    4016    2780    4015
CTETRA     20778       1     482    3011    2755    3015
CTETRA     20779       1    1873    5135    5156    1417
CTETRA     20780       1    1223    4014    2721    4015
CTETRA     20781       1    1988     244    3062    3083
CTETRA     20782       1    1380    1381    3977    3912
CTETRA     20783       1     572    4028    4027    4031
CTETRA     20784       1    2056    2258    4933    4940
CTETRA     20785       1    1060    4994    5046    4995
CTETRA     20786       1    2213     484     397    2760
CTETRA     20787       1     483    3437    3898     484
CTETRA     20788       1     790    1095    3901     792
CTETRA     20789       1    2463    2462    5724    3462
CTETRA     20790       1    2161    2159    2849    4994
CTETRA     20791       1    1849    2072    2949    2071
CTETRA     20792       1    2461    2760    5722    2237
CTETRA     20793       1    2461     484    3899    3798
CTETRA     20794       1     790     791     792    3901
CTETRA     20795       1    1180    3552    3061    2513
CTETRA     20796       1    1279     565    2952    1282
CTETRA     20797       1    4994    2849    1060    2159
CTETRA     20798       1    3095    4895     366    4894
CTETRA     20799       1     761    4987     760    4986
CTETRA     20800       1    2462    1281    5724    5725
CTETRA     20801       1    2827     759    1751    1750
CTETRA     20802       1    2161    4974    2855    4978
CTETRA     20803       1    1892     389    4991    5042
CTETRA     20804       1    1280    3658    5726    3659
CTETRA     20805       1    2606    2957    4284    4268
CTETRA     20806       1    3550    3551    3560    2674
CTETRA     20807       1    1761    2383    3509    3508
CTETRA     20808       1    1423    2434    2777    1733
CTETRA     20809       1    1966    2523    4799    4809
CTETRA     20810       1    2514    3584    1389    3023
CTETRA     20811       1    1703    2022    1962    1966
CTETRA     20812       1    2032    4825    4827    4823
CTETRA     20813       1     828     830    2022    1815
CTETRA     20814       1    1594    2906    4249    4250
CTETRA     20815       1    4698    2066    2522    4697
CTETRA     20816       1    1447    1389    2514    2991
CTETRA     20817       1    2764    2425    3494    3493
CTETRA     20818       1    1699    3004    2946    2285
CTETRA     20819       1    2522    4807    1871    4698
CTETRA     20820       1    1505    2032    1506    1503
CTETRA     20821       1    1834    1370    1962    1963
CTETRA     20822       1    2221    3010    2219    4648
CTETRA     20823       1    3057    3091    3485    5342
CTETRA     20824       1    1322    1761    3053    2383
CTETRA     20825       1    2236    2777    2517    2402
CTETRA     20826       1    2013    3477    3560    2674
CTETRA     20827       1    2564    4632    4614    4631
CTETRA     20828       1     254     963    1899    3044
CTETRA     20829       1    3547    2931    2614    2984
CTETRA     20830       1     854    2614    2931    2984
CTETRA     20831       1    2419      51     175    2323
CTETRA     20832       1    1389    3023    3584    3574
CTETRA     20833       1    1325    4587    4602    4603
CTETRA     20834       1    2997    2965    4606    4623
CTETRA     20835       1    2285    1880     749    2674
CTETRA     20836       1    3477    2014    2674    2013
CTETRA     20837       1    2458     751    2016    2013
CTETRA     20838       1    2286    3478    2013    2458
CTETRA     20839       1    2013     749    1420    2674
CTETRA     20840       1    2261    3230    1902    2134
CTETRA     20841       1     470    2067    2066    2119
CTETRA     20842       1    1017    1028    1015    1039
CTETRA     20843       1    3010    1871    4699    4698
CTETRA     20844       1     355    2784    4696    2190
CTETRA     20845       1     472    2120    4646    4627
CTETRA     20846       1    4666    2066    4665     473
CTETRA     20847       1     472    4609    2527    4626
CTETRA     20848       1    1085    1179    2819    2972
CTETRA     20849       1    1094     363    3803     361
CTETRA     20850       1    2258    1881    2259     989
CTETRA     20851       1     869    2113     990    1281
CTETRA     20852       1    4991    3098    4992     389
CTETRA     20853       1    2158    3098     389    5044
CTETRA     20854       1     983    1892     390     389
CTETRA     20855       1     742     740    1893     741
CTETRA     20856       1    2827    3017    4988    4967
CTETRA     20857       1    1269     494    1288    2520
CTETRA     20858       1    3095    2202    2814    4893
CTETRA     20859       1    2324    1098     361    1095
CTETRA     20860       1    1013    1280    2921    2743
CTETRA     20861       1    1887    1566     544    1228
CTETRA     20862       1      28    3643    1395    3652
CTETRA     20863       1    1095    2324    1094     361
CTETRA     20864       1    3812    1313    3465    2632
CTETRA     20865       1     593    2001    2003    2815
CTETRA     20866       1    2641     792    3900    3927
CTETRA     20867       1    4968    4989     760    2826
CTETRA     20868       1    2827    4988     849    4989
CTETRA     20869       1      41    1271     560    1274
CTETRA     20870       1    1891     849     741    5041
CTETRA     20871       1     335     333     336     685
CTETRA     20872       1    2826    2516     760    4969
CTETRA     20873       1    1892    1893    5042    5041
CTETRA     20874       1    1891     849    5041    4989
CTETRA     20875       1    1247    1250     576    1246
CTETRA     20876       1    3028     244    2897    3868
CTETRA     20877       1    1137    2494    2704    2715
CTETRA     20878       1    1245    1247    1246    1250
CTETRA     20879       1    2296    2704    3669    3846
CTETRA     20880       1    2716     802    1251     801
CTETRA     20881       1    2748    3669    2494    3727
CTETRA     20882       1    2759    2701    3796    3749
CTETRA     20883       1    2297    2296    3846    2704
CTETRA     20884       1    2733    1632    3738    3742
CTETRA     20885       1    2497    2390    2496    3694
CTETRA     20886       1    2294    3669    2748    3728
CTETRA     20887       1    1348    1355    1346     349
CTETRA     20888       1    2967    1250    4552     576
CTETRA     20889       1     131    2611    3081    2055
CTETRA     20890       1     935     585    1855    1875
CTETRA     20891       1    1690    1603    4365    1710
CTETRA     20892       1    2490    2611    2057    4945
CTETRA     20893       1    2994    2611    4965    3081
CTETRA     20894       1    1913     944    1405     946
CTETRA     20895       1     318     326    2994    2611
CTETRA     20896       1    1711    2612    2057    2056
CTETRA     20897       1    1712    2490    2611    2057
CTETRA     20898       1    2523    2784    4799    4696
CTETRA     20899       1    1372    4820    4806    4819
CTETRA     20900       1    2972    2991    5339    2992
CTETRA     20901       1    1742    1761    1322    2383
CTETRA     20902       1     828     831     860     824
CTETRA     20903       1    2595    2502    4596    2504
CTETRA     20904       1    2982    2124    2694    3481
CTETRA     20905       1     354      44      53      50
CTETRA     20906       1    1242    2677    2405    2674
CTETRA     20907       1     355    2523    1702    2067
CTETRA     20908       1    3550    3556    2822    2677
CTETRA     20909       1    1742    2383    2764    1761
CTETRA     20910       1     118     124     618     123
CTETRA     20911       1     784    2240    2239    2242
CTETRA     20912       1    3048    4893    4473    4472
CTETRA     20913       1     313     365     882    2945
CTETRA     20914       1     867     954     962    3081
CTETRA     20915       1    1207    1025    1026    1027
CTETRA     20916       1    2477    2242    4737    4744
CTETRA     20917       1    3230    1904    1902    1222
CTETRA     20918       1    2633    4711    4713    4679
CTETRA     20919       1     621    1209    3650    1027
CTETRA     20920       1     882    2945     365    3095
CTETRA     20921       1    1067     226    3217    1222
CTETRA     20922       1    1445    2922    1406    1407
CTETRA     20923       1    1468     622    1469    3413
CTETRA     20924       1    1664    2832    2290    1665
CTETRA     20925       1    1590    2780    1747    1744
CTETRA     20926       1    1746    1744    1015    1591
CTETRA     20927       1    2290    1665    5117    5129
CTETRA     20928       1    2399    3910    2687    2772
CTETRA     20929       1    1565    5117    2832    5125
CTETRA     20930       1    1016    2823    2134    1902
CTETRA     20931       1     188    2646    2377    1661
CTETRA     20932       1    1747    3977    4001    2780
CTETRA     20933       1    2924    2725    4480    4462
CTETRA     20934       1    1872    1664    2290    1665
CTETRA     20935       1    3976    3977    4001    1747
CTETRA     20936       1    1380    1382    2780    3977
CTETRA     20937       1    2489    2981    2977    2985
CTETRA     20938       1    1288    3905    2185    3938
CTETRA     20939       1    1288    2520    3905    3879
CTETRA     20940       1     270    1745    1746    1747
CTETRA     20941       1    1025    1948    3646    3643
CTETRA     20942       1    2201    2239    4736    4681
CTETRA     20943       1    2845    4468    4889    2993
CTETRA     20944       1    1006      37    1394    1221
CTETRA     20945       1    2201    4470    2006    4471
CTETRA     20946       1    3652      28    3653      30
CTETRA     20947       1    2890    2240    2792    4735
CTETRA     20948       1      40      30     557     564
CTETRA     20949       1    4967    2827    3017     759
CTETRA     20950       1      29    1282    2743    2902
CTETRA     20951       1     984     790    2460     791
CTETRA     20952       1     363     364     362    1092
CTETRA     20953       1    1094    3803     363    3811
CTETRA     20954       1    2826    1891    4990    4989
CTETRA     20955       1     759    2827    3017    1750
CTETRA     20956       1    3464    1094    3811    2921
CTETRA     20957       1    1041    1040    3215    3223
CTETRA     20958       1     594     759     592     561
CTETRA     20959       1    1750     759    2845    3017
CTETRA     20960       1    1006    1998    2744     621
CTETRA     20961       1    2399    2772    3884    3910
CTETRA     20962       1     684    1153    1151     848
CTETRA     20963       1     152     626     627     153
CTETRA     20964       1    3469    3662    2631    3470
CTETRA     20965       1    1902    2720    2823    2829
CTETRA     20966       1    1575    1578    1579    2052
CTETRA     20967       1     147    2486     395    2964
CTETRA     20968       1    2329     363     364    2632
CTETRA     20969       1    2887    2687    3968     271
CTETRA     20970       1    3230    1902    2134    2823
CTETRA     20971       1    1153    3017    2478    5019
CTETRA     20972       1    2884    2520    3879    3878
CTETRA     20973       1     802     450     448    1596
CTETRA     20974       1     534    1579    1181     658
CTETRA     20975       1    2927    2591    2457    3993
CTETRA     20976       1    2574    1349    1348    4591
CTETRA     20977       1    2574    4606    2686    2997
CTETRA     20978       1    2574    2997    2343    4606
CTETRA     20979       1    2223    1733    2434    2224
CTETRA     20980       1    2332     343    2328    2786
CTETRA     20981       1    1348    4486    1355    1353
CTETRA     20982       1    1840    2333    2786    2332
CTETRA     20983       1    1127    3790    2759    2314
CTETRA     20984       1    1127    2314    3789    3790
CTETRA     20985       1    3474    2339    3769    3768
CTETRA     20986       1    2574    1349    4591    2343
CTETRA     20987       1     387    2903    2914     395
CTETRA     20988       1    3789    1126    2337    1127
CTETRA     20989       1    2166    2893    2892    2891
CTETRA     20990       1    1789     238    3049    1233
CTETRA     20991       1    1650    1647    2492    1646
CTETRA     20992       1    2716    4878    4457    1251
CTETRA     20993       1    2894    2987     801    4549
CTETRA     20994       1     595     125     119     117
CTETRA     20995       1     451    1596    1597    2374
CTETRA     20996       1     965    2967    2988    3024
CTETRA     20997       1    2529    2769    2709    3047
CTETRA     20998       1    2060    3872    2063    3827
CTETRA     20999       1    1238    1240     857    1241
CTETRA     21000       1     879      54      59    1536
CTETRA     21001       1     855    1839    2337     858
CTETRA     21002       1      42     855      45     856
CTETRA     21003       1    1193    2326    1122    2673
CTETRA     21004       1     855    2337    3769     852
CTETRA     21005       1    3046    2337    2339    3768
CTETRA     21006       1    2337    3789    2314    3778
CTETRA     21007       1    1937    1404    4837    1935
CTETRA     21008       1    1879    2751     761    2516
CTETRA     21009       1    4955    1939    4958     954
CTETRA     21010       1    5729    1473    1478    1148
CTETRA     21011       1    2331      30    3657    1313
CTETRA     21012       1    4888    2845    4468    4889
CTETRA     21013       1    2201    2239    1113    2890
CTETRA     21014       1    2744    3649    1025    1027
CTETRA     21015       1     781    2240    2890    2239
CTETRA     21016       1    1395    2902    3652    3655
CTETRA     21017       1    1596    2374    4877    1597
CTETRA     21018       1    2305    2744     621    3355
CTETRA     21019       1    1968     588     590     591
CTETRA     21020       1     813     679     821     815
CTETRA     21021       1     816    2520    2884     364
CTETRA     21022       1     338     503    2980    5015
CTETRA     21023       1    1313     564     443    2329
CTETRA     21024       1    3805    2884    3878     364
CTETRA     21025       1    4885    2372    4464    4465
CTETRA     21026       1    3806    2885    3859    3805
CTETRA     21027       1    1014    1034    1016    1015
CTETRA     21028       1    1909    1819    1574    2525
CTETRA     21029       1    3015    5118    2831    5124
CTETRA     21030       1    1169    3015    2831    5124
CTETRA     21031       1    3015    5125    2832    5118
CTETRA     21032       1    1967    4821    4819    4818
CTETRA     21033       1    3556    2822    2677    2322
CTETRA     21034       1    2750    2396    5356    5355
CTETRA     21035       1    2406    2410    1446    1390
CTETRA     21036       1    1743    1837    1740    1183
CTETRA     21037       1    1740    3506    3505    3499
CTETRA     21038       1    3490    2946    3508    3004
CTETRA     21039       1    2764    2765    1743    3509
CTETRA     21040       1    1736    2586    2587    1763
CTETRA     21041       1    1077    2680    1083    2395
CTETRA     21042       1    1871    4811    2183    4699
CTETRA     21043       1    1736    2587    2586    1900
CTETRA     21044       1    2771    5315    5316    5325
CTETRA     21045       1    2522    2523    4806    4808
CTETRA     21046       1    2067    1870    2066    2522
CTETRA     21047       1    2066    2522    4697    2067
CTETRA     21048       1    1503    4811    1506    1871
CTETRA     21049       1    2946    1837    3498    1761
CTETRA     21050       1    1597    1596    1251    4877
CTETRA     21051       1    1102    1107    1099    2470
CTETRA     21052       1    3058    4579    4557    4583
CTETRA     21053       1     414      23     417     474
CTETRA     21054       1    3059    4583    4584    4579
CTETRA     21055       1    3683    1099    3737    1101
CTETRA     21056       1    2727    1346     213    4487
CTETRA     21057       1    1119     780    2796    2890
CTETRA     21058       1    1102    1101    1099    1107
CTETRA     21059       1     998    2850    3007    3731
CTETRA     21060       1    2453    3729    3723    3682
CTETRA     21061       1    3746    2470    2274    2122
CTETRA     21062       1     451    1596    1251    1597
CTETRA     21063       1    2053    1508    1228    1566
CTETRA     21064       1    1758    1339    1530    2469
CTETRA     21065       1    1099    2453    3682    3729
CTETRA     21066       1    2274    2272    3793    3783
CTETRA     21067       1    2328    2758    1103    2701
CTETRA     21068       1    3076    4225    1339    4209
CTETRA     21069       1    1112     863    1501    1500
CTETRA     21070       1    1725    1311    2411    2615
CTETRA     21071       1     863    4783    1501    4778
CTETRA     21072       1    1724    1726    2299    1729
CTETRA     21073       1     912     914     913    2433
CTETRA     21074       1    1189    4778    1500    4771
CTETRA     21075       1    4775    1959    1678    4776
CTETRA     21076       1    1722    2672    3038    3037
CTETRA     21077       1    1959    4781    4776    4775
CTETRA     21078       1    1675    5257    5250    5245
CTETRA     21079       1     864     863    1189    4770
CTETRA     21080       1     174    1189    2419    4771
CTETRA     21081       1    2323    2742    4641    2446
CTETRA     21082       1     779    2999    2931    2614
CTETRA     21083       1    2323    2181    1918    2742
CTETRA     21084       1    2419    4771    1500    4692
CTETRA     21085       1     174    1189    4771    4773
CTETRA     21086       1    2575    2742    2997    4622
CTETRA     21087       1    2770    2771    2417    5315
CTETRA     21088       1    2965    2742    4623    2997
CTETRA     21089       1     555    2965    2742    2446
CTETRA     21090       1    2742    4623    2997    4622
CTETRA     21091       1      47    1349    1347     347
CTETRA     21092       1    2931    2984    3474     852
CTETRA     21093       1    2188    2575    4621    4622
CTETRA     21094       1    1825    2914    3753    3666
CTETRA     21095       1     855    2315     856     852
CTETRA     21096       1    1369    1962    1372    2522
CTETRA     21097       1    3547    2931    3474    3473
CTETRA     21098       1    5398    5397    5873    4825
CTETRA     21099       1    1126    3778    3046    3777
CTETRA     21100       1    2822    1242    2674    2677
CTETRA     21101       1    1275    2011    1295    2010
CTETRA     21102       1    2786    2759    3790    2314
CTETRA     21103       1    2328    2701    2786    2759
CTETRA     21104       1    2786    3781    2332    2333
CTETRA     21105       1    2851    3792    2786    2701
CTETRA     21106       1    1839    2759    2786    2314
CTETRA     21107       1    2786    2759    2701    3796
CTETRA     21108       1    1347      47    2344    1349
CTETRA     21109       1     349    1348    1349    1346
CTETRA     21110       1    2636    2292    5128    5135
CTETRA     21111       1    4457    2716    4550    4458
CTETRA     21112       1    2780    3978    4012    4016
CTETRA     21113       1    2636    1873    2292    5135
CTETRA     21114       1    2665    2130    3983    3982
CTETRA     21115       1    2601    4077    2620    2617
CTETRA     21116       1     322     923    2996     926
CTETRA     21117       1     919     930    1485     921
CTETRA     21118       1    2723    2438    3893    1452
CTETRA     21119       1    2735     410    5187    5177
CTETRA     21120       1    1783    3162    3113    3161
CTETRA     21121       1    2714    5188    2712    5186
CTETRA     21122       1    2553    5004    2555    5024
CTETRA     21123       1    2306    3163    2935    3157
CTETRA     21124       1    1665    1873    5129    1872
CTETRA     21125       1    2554    5179    2712    5188
CTETRA     21126       1    2555    1449    2552    2554
CTETRA     21127       1    2756    1565    5127    5126
CTETRA     21128       1    1598    1597    4877    2707
CTETRA     21129       1    2755    1565    5125    5127
CTETRA     21130       1     805     801    2967    1250
CTETRA     21131       1    2755    5125    1565    3015
CTETRA     21132       1    1565    2832    3015    5125
CTETRA     21133       1    1570    2756    2293    1565
CTETRA     21134       1     502     966    1197     805
CTETRA     21135       1     496    1819    1909    1903
CTETRA     21136       1    2876    3964    2898     907
CTETRA     21137       1    1290    3970    2887    3909
CTETRA     21138       1    2698    2696     810     725
CTETRA     21139       1    3815    3859    2885     820
CTETRA     21140       1    1711     134    2056    2054
CTETRA     21141       1    2932     400     941    2760
CTETRA     21142       1     602    2211    1268     601
CTETRA     21143       1    2168    2177    1266    4901
CTETRA     21144       1    4944    4942    2056    2057
CTETRA     21145       1     892    1775    2034    2191
CTETRA     21146       1     941     403     408    2760
CTETRA     21147       1    4827    2032    4829    1866
CTETRA     21148       1    4919    2858    1668    4904
CTETRA     21149       1    4647     471    4628    1378
CTETRA     21150       1    3080    3517    2693    2694
CTETRA     21151       1     916    3079    2787    2300
CTETRA     21152       1    2244    2851    1104    2272
CTETRA     21153       1    2694    2382    3518    2695
CTETRA     21154       1    1285    2453    3681    3682
CTETRA     21155       1    2502    2504    4612    4596
CTETRA     21156       1    3004    2982    3053    3491
CTETRA     21157       1    1502    1871    1503    1506
CTETRA     21158       1    2783    2609    2608    4179
CTETRA     21159       1    1963    2039    2038    1961
CTETRA     21160       1    1739    1086    2738    2817
CTETRA     21161       1    1189     863    1500    4778
CTETRA     21162       1     859     455    1918    2180
CTETRA     21163       1      42    2178     855     852
CTETRA     21164       1    4640    2742    2323    2188
CTETRA     21165       1    2323    4692     174    2419
CTETRA     21166       1    2323    4661    2446    4641
CTETRA     21167       1     395    2964    3666    2914
CTETRA     21168       1    2894    4547    2987    4549
CTETRA     21169       1    2978    4882    4881    5014
CTETRA     21170       1    1245     801    1250    1251
CTETRA     21171       1    1471     971    1472    2748
CTETRA     21172       1    2356    3092    1986    3093
CTETRA     21173       1    2673    3667    2295    3688
CTETRA     21174       1     672     226    1222    2859
CTETRA     21175       1    2907    2704    3846    3845
CTETRA     21176       1    2560    5313    2417    1081
CTETRA     21177       1    2708    3704    3703    3697
CTETRA     21178       1    3034    4533    2357    4529
CTETRA     21179       1    2943    4506    4519    4516
CTETRA     21180       1     718     719     861    2546
CTETRA     21181       1    2766    3007    3693    3692
CTETRA     21182       1    2497    2766    3693    3708
CTETRA     21183       1    2793    2370    4119    4120
CTETRA     21184       1     548     547     999    3007
CTETRA     21185       1     880    3007    2850    2391
CTETRA     21186       1    1617    3007    2391    2390
CTETRA     21187       1    2172    4542    3024    4541
CTETRA     21188       1      61     878     916    1637
CTETRA     21189       1    2497    3693    2390    3694
CTETRA     21190       1     999    2766    3692    3007
CTETRA     21191       1    2531    3047    2962    3082
CTETRA     21192       1     385    2345     308    3034
CTETRA     21193       1     548    2080    3006      71
CTETRA     21194       1    1126    3046    3778    2337
CTETRA     21195       1    1143    2171    2175    2176
CTETRA     21196       1    2357    2175    2912    4528
CTETRA     21197       1    2549    4523    4521    4520
CTETRA     21198       1    2007    4890    2006    4469
CTETRA     21199       1     759     592    4890    4987
CTETRA     21200       1    2993    2845     759    4889
CTETRA     21201       1     759    2845    4967    4889
CTETRA     21202       1     443    3466    1313    2632
CTETRA     21203       1    1632    1629    1101    1633
CTETRA     21204       1     469    2118    2221    1378
CTETRA     21205       1     979    2429    1255     978
CTETRA     21206       1    2727     213    1218    4488
CTETRA     21207       1    2272    2458    2332    3782
CTETRA     21208       1    1827    4203    1830    4183
CTETRA     21209       1    2694    2695    3518    3517
CTETRA     21210       1    3004    3053    3490    3491
CTETRA     21211       1    2273    2286    1134    2458
CTETRA     21212       1    3412    3413    3418    2593
CTETRA     21213       1    1203    1856    2500     617
CTETRA     21214       1     425     633    2688    2416
CTETRA     21215       1      16      18    1202      17
CTETRA     21216       1    2116    5287    5288    5263
CTETRA     21217       1    4931    2258    4932    2753
CTETRA     21218       1    2111    1937    4848    4476
CTETRA     21219       1    2003     592    4891    2006
CTETRA     21220       1    3048    2633    4680    4679
CTETRA     21221       1    2505    2239    4681    4710
CTETRA     21222       1    4713     797    4709     798
CTETRA     21223       1     794    2633     798     797
CTETRA     21224       1     621    3650    1209    3356
CTETRA     21225       1     368     366    4474    3048
CTETRA     21226       1    1997    1996    1846    2633
CTETRA     21227       1      26    1202      19      18
CTETRA     21228       1     265     817     424     818
CTETRA     21229       1     648     654    4444    4443
CTETRA     21230       1    1468    1844      19     622
CTETRA     21231       1    2602    1914    2958     663
CTETRA     21232       1     622    1469    3413    3416
CTETRA     21233       1     796    2242     788     797
CTETRA     21234       1    2305    3641    2744    3355
CTETRA     21235       1     212     643     649    1858
CTETRA     21236       1     842    5294    5291    5297
CTETRA     21237       1     817    5292    5268    5267
CTETRA     21238       1    2952    5728    1760    5727
CTETRA     21239       1     990     180       5       7
CTETRA     21240       1    2592    3417    2593    3412
CTETRA     21241       1    1392    1731     182    1949
CTETRA     21242       1    1203     617     201    1856
CTETRA     21243       1    1478    5729    1760    5728
CTETRA     21244       1     940    1937    1858     885
CTETRA     21245       1     144    1197    1541     139
CTETRA     21246       1    1470    1471    3736    3735
CTETRA     21247       1    1141    2497    2390    2496
CTETRA     21248       1     964     969     967     971
CTETRA     21249       1    2011    2876    2198    2053
CTETRA     21250       1    1647    2497    2496    3694
CTETRA     21251       1    2964    3666    1825    3784
CTETRA     21252       1     691    1544    2730     959
CTETRA     21253       1    2806    4657    4689    4658
CTETRA     21254       1     819    1160    3068    1161
CTETRA     21255       1    4691     174    4660    4692
CTETRA     21256       1     692     174    1189    2419
CTETRA     21257       1    3035    2679    2675     737
CTETRA     21258       1    2560    2417    5313    5314
CTETRA     21259       1     778     588     591     769
CTETRA     21260       1     175     177     174    2323
CTETRA     21261       1     736    1326    2188    2575
CTETRA     21262       1    3090    4602    4601    4619
CTETRA     21263       1    1723     507     635     509
CTETRA     21264       1    3613    2803    2615    2999
CTETRA     21265       1    3572    3613    2803    2615
CTETRA     21266       1    2483    2931    3473    2339
CTETRA     21267       1    2483    2339    3473    3761
CTETRA     21268       1    2559    5404    2560    5403
CTETRA     21269       1    2516     760    4986     761
CTETRA     21270       1    5313    5403    1081    2560
CTETRA     21271       1    2770    5314    2560    5405
CTETRA     21272       1     363    1094    3811    3464
CTETRA     21273       1    2559    2561    5408    5403
CTETRA     21274       1    2113    2460    2237     408
CTETRA     21275       1     680     681     682     676
CTETRA     21276       1     760     759    4967    4987
CTETRA     21277       1    4989     760    2826    2827
CTETRA     21278       1     692    1189    1112    2419
CTETRA     21279       1     174    4771    2419    4692
CTETRA     21280       1    1471    2748    3727    3728
CTETRA     21281       1    4496    2175    2171    2176
CTETRA     21282       1    1470    1472    3022    3736
CTETRA     21283       1    2171    2173    2912    4574
CTETRA     21284       1    2988    3029    4541    4569
CTETRA     21285       1    1136    4577    4580    4571
CTETRA     21286       1    2758      86    3685    3750
CTETRA     21287       1    2171     576    3024    4542
CTETRA     21288       1    2966    4588    2354    4482
CTETRA     21289       1     709    2494    2748    2296
CTETRA     21290       1    1140    3063    1988     243
CTETRA     21291       1    2492    2748    2494    3727
CTETRA     21292       1    1472    3022    3734    2496
CTETRA     21293       1    1643    1139    1642     707
CTETRA     21294       1    1650    1647    2497    2496
CTETRA     21295       1    2492    2496    3726    3695
CTETRA     21296       1    1472    2492    3727    2748
CTETRA     21297       1    1650    1472    2492    2496
CTETRA     21298       1    2841    2147    3183    3182
CTETRA     21299       1    3174    3073     187    3178
CTETRA     21300       1    1608    1635    1634    1732
CTETRA     21301       1      96     756     239     789
CTETRA     21302       1    2176    4495     576    4496
CTETRA     21303       1    1983    2169    1636    2302
CTETRA     21304       1     971    2294    1471    2326
CTETRA     21305       1    1646    3671    2492    2494
CTETRA     21306       1    1245    4530    1246    1248
CTETRA     21307       1    2176    4532    1246    4495
CTETRA     21308       1    2175    4533    2167    4532
CTETRA     21309       1    4496    4532    4528    2175
CTETRA     21310       1    1369    1372    1371    1503
CTETRA     21311       1     751    1840     752    2332
CTETRA     21312       1    2854    1580     570    1581
CTETRA     21313       1    2011    2010    1566    1132
CTETRA     21314       1    2571     776    2646    3103
CTETRA     21315       1      20    3053    3004    2982
CTETRA     21316       1     472    4628    4627    4646
CTETRA     21317       1     473    4646     472    2120
CTETRA     21318       1     214     472    4610    1350
CTETRA     21319       1    3614    3547    2931    2614
CTETRA     21320       1    2999    2614    3614    2931
CTETRA     21321       1    3573    2614    2999    2615
CTETRA     21322       1    3572    2615    3573    3613
CTETRA     21323       1    2614    3547    2984    2619
CTETRA     21324       1    2614    2929    3580    2619
CTETRA     21325       1    1309    2614    2929    2615
CTETRA     21326       1    2615    3573    3613    2999
CTETRA     21327       1    3053    1761      20    3004
CTETRA     21328       1    4285     974    1830    1615
CTETRA     21329       1    2382    2383    3493    2425
CTETRA     21330       1    2210     587    4683    4469
CTETRA     21331       1     620    2240    2792    2890
CTETRA     21332       1    1020    2377    2571    2646
CTETRA     21333       1    2331      30    2743    3657
CTETRA     21334       1    2571     776    3103    3169
CTETRA     21335       1    2329    2632    1313     363
CTETRA     21336       1    2007    4468    2993    4889
CTETRA     21337       1     686     848     741     849
CTETRA     21338       1    2647    1974     733    1696
CTETRA     21339       1    2650    2647    4685    2993
CTETRA     21340       1    2210    2007    4468    2993
CTETRA     21341       1      30    2902    3657    3652
CTETRA     21342       1    1748    1272     560    1749
CTETRA     21343       1    2571     776    3169    3131
CTETRA     21344       1    2013    2285    3560    3559
CTETRA     21345       1    3765    2124    3481    3754
CTETRA     21346       1    4492    4561    2846    2596
CTETRA     21347       1     225     230    1738    1742
CTETRA     21348       1    3010    2183    2219    4668
CTETRA     21349       1    1742    2425    2383    1322
CTETRA     21350       1    1378    2118    4647     471
CTETRA     21351       1    1589    2841    2147    2821
CTETRA     21352       1    2218    1378    2221    4630
CTETRA     21353       1    2219    2224    4669    1868
CTETRA     21354       1    1883    2398    1177    2397
CTETRA     21355       1    2219    4650    4649    4669
CTETRA     21356       1    1743    3498    1740    1837
CTETRA     21357       1     131    3081    2054    2055
CTETRA     21358       1    1696    3017    1753    1750
CTETRA     21359       1    1280    2743    1013    1282
CTETRA     21360       1     734     781    1113     787
CTETRA     21361       1    1892    2826    1891    4990
CTETRA     21362       1    1881    2915     991    2256
CTETRA     21363       1    1748    1749     441    1093
CTETRA     21364       1    2516    1751     760     761
CTETRA     21365       1    1892    5041    1891    1893
CTETRA     21366       1    2136    2827    2826     760
CTETRA     21367       1    5724    2463    2460    2113
CTETRA     21368       1    1119    2006     587    2007
CTETRA     21369       1    2025    1359    5719    5720
CTETRA     21370       1    2256    2915     991    1878
CTETRA     21371       1    2852    2753    4933    2056
CTETRA     21372       1    3899    2461    3900     484
CTETRA     21373       1    2760     164    2461     484
CTETRA     21374       1    3098    4993    5044    2158
CTETRA     21375       1    2752    2160    4972    4971
CTETRA     21376       1    2462    1094    2921    3814
CTETRA     21377       1    5045    5046     909    2159
CTETRA     21378       1     388    2158    3098     389
CTETRA     21379       1     546    2390    2766    3007
CTETRA     21380       1    1141    1617    2390     546
CTETRA     21381       1     805     801    1197    2987
CTETRA     21382       1    2171    1732    2172     575
CTETRA     21383       1    1632    1470    3738    2400
CTETRA     21384       1    1472    3726    2496    3734
CTETRA     21385       1     576    3024     575    2171
CTETRA     21386       1    2171    2175    4497    2912
CTETRA     21387       1     918    2912    2171    2173
CTETRA     21388       1      71    2351    2370      34
CTETRA     21389       1    2769    3697    3715    3698
CTETRA     21390       1    2345    2357     383    4529
CTETRA     21391       1    3036    3082    3711     997
CTETRA     21392       1    2368    2497    3708    2766
CTETRA     21393       1    2910    4452    4522    4523
CTETRA     21394       1     297    2557    2556    2790
CTETRA     21395       1     764    4452    4453    4522
CTETRA     21396       1    1135    2908    1140     704
CTETRA     21397       1     136    2180     455     458
CTETRA     21398       1    1009    2167    2175    2357
CTETRA     21399       1    1102    1535    1932    1220
CTETRA     21400       1    1009    2357    2175    2912
CTETRA     21401       1    1647    3694    2496    3695
CTETRA     21402       1    1141    2390    2497    2766
CTETRA     21403       1    1647    2492    3695    2496
CTETRA     21404       1     297    2790    2797    2557
CTETRA     21405       1    2670    2643    3677    3676
CTETRA     21406       1    1380    1379    1555    1382
CTETRA     21407       1    1757    1099    2200    2453
CTETRA     21408       1    2174    2167    1248    2176
CTETRA     21409       1    2292    2293    5116    2290
CTETRA     21410       1    2887     272    1289    2687
CTETRA     21411       1    2907    2899    3823    2908
CTETRA     21412       1    1102    1756    1757    1099
CTETRA     21413       1    1560    2447     907    2898
CTETRA     21414       1     833    1565    2293    2290
CTETRA     21415       1    1135    2691    2908    2690
CTETRA     21416       1    3845    2704    3843    2907
CTETRA     21417       1    2979    2716    4458     801
CTETRA     21418       1    2716     801    4550    4458
CTETRA     21419       1    2716    4550     801    1251
CTETRA     21420       1    1135    2297    2903    2690
CTETRA     21421       1    2907    2297    3846    2704
CTETRA     21422       1    1380    3062    3913    3083
CTETRA     21423       1    3083    3886     244    3062
CTETRA     21424       1    2181     175      51    2323
CTETRA     21425       1     175    2323     174    2419
CTETRA     21426       1    3611    2917    2916    1965
CTETRA     21427       1     386    2914    2673    1825
CTETRA     21428       1     353    1443     826    1444
CTETRA     21429       1    1718    3145    3003    3135
CTETRA     21430       1    2686    2575    4605    4604
CTETRA     21431       1     139     453    2966    2724
CTETRA     21432       1    1767    2294    2296    2748
CTETRA     21433       1     805    2987    2967     801
CTETRA     21434       1     145     139    2724     453
CTETRA     21435       1    2294    2295    2296    3668
CTETRA     21436       1    3778    3789    1126    2337
CTETRA     21437       1    2399    2774    3884    2772
CTETRA     21438       1    2903    3848    2690    2297
CTETRA     21439       1    2821    2571    2377    3180
CTETRA     21440       1    2733    2391    3742    3740
CTETRA     21441       1    1470    3736    3022    3740
CTETRA     21442       1    2400    3686      86      83
CTETRA     21443       1     577     576    2171    1143
CTETRA     21444       1    2302     910     877     911
CTETRA     21445       1    1983    2171    2172    2173
CTETRA     21446       1    1815    1703    2784    2022
CTETRA     21447       1    1944    2627    1950    3060
CTETRA     21448       1     688    1110      52     175
CTETRA     21449       1     629     630    1677    1959
CTETRA     21450       1     176     177    4691     174
CTETRA     21451       1    2627    3764    1950    3663
CTETRA     21452       1     613    1853    2451    2149
CTETRA     21453       1    1944    3060    1950    1952
CTETRA     21454       1     608    1851     614    1906
CTETRA     21455       1    1160     819    3068    1270
CTETRA     21456       1    1964     505     119      82
CTETRA     21457       1    4660     174     177    2323
CTETRA     21458       1     735    3654    1005    2271
CTETRA     21459       1    1696    1750    2845    3017
CTETRA     21460       1     873    2260    2304    2182
CTETRA     21461       1     363    1092    2331    1313
CTETRA     21462       1      40     564     442      30
CTETRA     21463       1    2007    4890     759     592
CTETRA     21464       1    2007     759    4890    4889
CTETRA     21465       1    2329     443    2632    2330
CTETRA     21466       1    1113    2201    2505    2239
CTETRA     21467       1    2428    2154    4293    4294
CTETRA     21468       1    2136    2826    2516     760
CTETRA     21469       1    2271    1025    3643    1948
CTETRA     21470       1    2647    1696    2650    1074
CTETRA     21471       1     442      30    1313    3653
CTETRA     21472       1    2138    2007    2993     759
CTETRA     21473       1     705     450     805    1247
CTETRA     21474       1    1137     709     704    2704
CTETRA     21475       1    1767    2294    2295    2296
CTETRA     21476       1    1978    1126    3046    3777
CTETRA     21477       1      83      85    1127    3795
CTETRA     21478       1    1471    2326    2294    3728
CTETRA     21479       1    1471    2294    2748    3728
CTETRA     21480       1    1126    3795    3787    1121
CTETRA     21481       1    2987    2967     965     805
CTETRA     21482       1    3003    1458    1457    2998
CTETRA     21483       1     377    1175     239    1173
CTETRA     21484       1    2665    2130    2128    3983
CTETRA     21485       1     277      96    1227     303
CTETRA     21486       1    1987    1988     836    1379
CTETRA     21487       1    2438    1452    2684    3893
CTETRA     21488       1    3893    2438    3874    2684
CTETRA     21489       1    3147    2306    3181    3186
CTETRA     21490       1    1851    1908    1852    2860
CTETRA     21491       1    1451    3920    2684    3893
CTETRA     21492       1    2281    2703    5185    5026
CTETRA     21493       1    3887    3868    3888    2897
CTETRA     21494       1     716     721    2621    2791
CTETRA     21495       1    2703    2552    5183    5025
CTETRA     21496       1    5024    2554    2555    2552
CTETRA     21497       1    5183    2554    5024    2552
CTETRA     21498       1    2086    2085    2662    2164
CTETRA     21499       1     410    5184    2713    2714
CTETRA     21500       1     102    2373    1808    3021
CTETRA     21501       1     765    2702    2881    2553
CTETRA     21502       1    2702    2281    5026    2703
CTETRA     21503       1    3695    1647    3671    2492
CTETRA     21504       1    1647    2497    3694    3706
CTETRA     21505       1    2167    2176    2175    4532
CTETRA     21506       1    1646    3671    2715    3841
CTETRA     21507       1    2575    2997    4605    4622
CTETRA     21508       1    2686    2575    2997    4605
CTETRA     21509       1    2188    4640    2742    4622
CTETRA     21510       1     971    1471    2294    2748
CTETRA     21511       1    2978    2976    4881    4461
CTETRA     21512       1    2673    1825    2914    3753
CTETRA     21513       1    3046    2339    3761    3768
CTETRA     21514       1    3046    3778    2337    3768
CTETRA     21515       1    2882     395    3852    3851
CTETRA     21516       1    2483    3761    3046    2339
CTETRA     21517       1    1197    2894    3019    2987
CTETRA     21518       1    1127    2314    2337    3789
CTETRA     21519       1    3069    2724    2726    4481
CTETRA     21520       1     369    2892    1348    1354
CTETRA     21521       1     613    2206    1853    4295
CTETRA     21522       1    2988    1701    4554    2967
CTETRA     21523       1    1977    2964    1980    3665
CTETRA     21524       1     145    3069    1200    2725
CTETRA     21525       1    2472    1327    4588    2966
CTETRA     21526       1    2326      83    3752    3687
CTETRA     21527       1      45    1840     750     856
CTETRA     21528       1    2758    3749    2759    3750
CTETRA     21529       1    1121    3785    1980    3784
CTETRA     21530       1    1866    1463    4812    4828
CTETRA     21531       1     347    1348    2574    1349
CTETRA     21532       1     347    2574      47    1349
CTETRA     21533       1    2891    2892    1348    4485
CTETRA     21534       1     640    1189     864     863
CTETRA     21535       1      78     509    1723    1728
CTETRA     21536       1     591    3471    2414    3603
CTETRA     21537       1     864     863    4770    4777
CTETRA     21538       1    4812    1866    4829    1506
CTETRA     21539       1    1864    1506    1463    1868
CTETRA     21540       1    2916    3615    3605    3604
CTETRA     21541       1     589     769    1965    3607
CTETRA     21542       1    2836    5232    5228    5231
CTETRA     21543       1    1757    1532    1758    2200
CTETRA     21544       1    1215    3058    1537    2729
CTETRA     21545       1      13     207    1145      18
CTETRA     21546       1    2003    2006    4891    4471
CTETRA     21547       1    1463    4701    1868    4812
CTETRA     21548       1    3649    1395    2744    1025
CTETRA     21549       1    1006     621    2744    1027
CTETRA     21550       1    1209    3357    2416    2688
CTETRA     21551       1    2416     275    3633    3637
CTETRA     21552       1    1845     622    2688    1469
CTETRA     21553       1    1207    1936    2346    1948
CTETRA     21554       1    2416     274     275     428
CTETRA     21555       1    3400    3417    2335    2592
CTETRA     21556       1    2518     617     842     260
CTETRA     21557       1    5291     842     817    5292
CTETRA     21558       1     367    1407     798     368
CTETRA     21559       1    2688    3414    1469    3416
CTETRA     21560       1    1209    3357     622    3356
CTETRA     21561       1    1667    1666    1195    1354
CTETRA     21562       1    2986    2893    1701    4539
CTETRA     21563       1    2726    2966    2354    4482
CTETRA     21564       1    2726    4482    2354    4543
CTETRA     21565       1    3090    4585    4601    4586
CTETRA     21566       1     452    3019    2986    2987
CTETRA     21567       1    1311    1310    2615    1725
CTETRA     21568       1    2472    1327    4589    4588
CTETRA     21569       1    2472    2686    4590    4589
CTETRA     21570       1    2574    1348    2892    4485
CTETRA     21571       1    2574    4591    1348    4485
CTETRA     21572       1    4701    4702    4813    1463
CTETRA     21573       1     454    1968     746     463
CTETRA     21574       1    1886     193    2226    2861
CTETRA     21575       1      86      85    3750    2759
CTETRA     21576       1    1215     773     772    3058
CTETRA     21577       1    1839    1129    2759    1127
CTETRA     21578       1     858    1127    2337    1126
CTETRA     21579       1     369    2472    2574    2892
CTETRA     21580       1    4590    2472    4484    2892
CTETRA     21581       1    4483    2472    2354    2989
CTETRA     21582       1    4606    2686    4590    2574
CTETRA     21583       1     191     194    2668    2226
CTETRA     21584       1      83    1120      85    1128
CTETRA     21585       1    2562     195    2226     194
CTETRA     21586       1    2574    4485    2892    4590
CTETRA     21587       1    1434    1457    1456    1581
CTETRA     21588       1    4052    1453    4053    2948
CTETRA     21589       1    2146    2306     109    2309
CTETRA     21590       1    2088    4349    2089    2087
CTETRA     21591       1    2948    3152    1806    3137
CTETRA     21592       1    2545    1117    1116    2360
CTETRA     21593       1     886    1451    1455    2083
CTETRA     21594       1    3918    2870    3984    2128
CTETRA     21595       1    2535    2081     412     411
CTETRA     21596       1    2714    2554    2712    5188
CTETRA     21597       1    2665    2130    1024    2128
CTETRA     21598       1    1537    2495      59    1536
CTETRA     21599       1    2714    2554    5188    5183
CTETRA     21600       1    2378    2714    2712    5186
CTETRA     21601       1    2857    3140    2825    1718
CTETRA     21602       1    1280    2743    3659    3660
CTETRA     21603       1    2515    2046    1879     439
CTETRA     21604       1    3098    2515     436    3075
CTETRA     21605       1    3075    2515    2516    4969
CTETRA     21606       1    2226     194    2668    2562
CTETRA     21607       1     792     790    1095    2642
CTETRA     21608       1    2921    3814    3463    2462
CTETRA     21609       1    1094    2331    3464     363
CTETRA     21610       1    2635    2226    2861    4310
CTETRA     21611       1    1280    3661    2921    3660
CTETRA     21612       1    2331    3660    2921    3464
CTETRA     21613       1    3811    3814    3463    2921
CTETRA     21614       1    3017     848    1153    1753
CTETRA     21615       1    2635    4310    2861    4312
CTETRA     21616       1     821     820    2884    2520
CTETRA     21617       1     337     334    2754    1570
CTETRA     21618       1     743    5039     848    5038
CTETRA     21619       1    5037    1151    1152    1149
CTETRA     21620       1    1153    2478    2372    4885
CTETRA     21621       1    5038     848    1151    5018
CTETRA     21622       1    1153     848    5019    5018
CTETRA     21623       1    1417    5156    5140    5135
CTETRA     21624       1    5156    1873    1418    2636
CTETRA     21625       1    2130    2854    3983    4036
CTETRA     21626       1    1652     412    5166    5175
CTETRA     21627       1    2081     412    5176    5166
CTETRA     21628       1    5157    5156    5140    1417
CTETRA     21629       1    2289    2636    2292    5128
CTETRA     21630       1    2612    4943    2058    4941
CTETRA     21631       1    2058    2490    4941    4898
CTETRA     21632       1    2177    4936    2741    1266
CTETRA     21633       1    1710    1512    1520    1708
CTETRA     21634       1     608    1908    2208    1852
CTETRA     21635       1    1908    2490    2058    4898
CTETRA     21636       1    4974    2855    1265    2923
CTETRA     21637       1     134    2852    2056    2753
CTETRA     21638       1     791     164     173    2641
CTETRA     21639       1     870    1358     941    2237
CTETRA     21640       1    1266    1267    4935    2612
CTETRA     21641       1    2878     880    2850    1633
CTETRA     21642       1    2172    2171    4574    2173
CTETRA     21643       1    2877     755    3051    4216
CTETRA     21644       1    1136    3041    4571    2169
CTETRA     21645       1    2162    3452    4305    4309
CTETRA     21646       1    4575    1983    2302    2169
CTETRA     21647       1    2172    2171    4542    4574
CTETRA     21648       1    2893    2891    4484    2892
CTETRA     21649       1    1353    4566    3029    4568
CTETRA     21650       1    2009      86    2759      85
CTETRA     21651       1    1666    3029    2988    2891
CTETRA     21652       1     840    2291    2292    2293
CTETRA     21653       1    2908    3822    2907    3847
CTETRA     21654       1     453    2473    1325    3090
CTETRA     21655       1    1976    1979    3060    1978
CTETRA     21656       1    5013    1985    3093    3064
CTETRA     21657       1    2293    1565    5117    2290
CTETRA     21658       1    1943    1951    2488    3001
CTETRA     21659       1    1976     463     142    3060
CTETRA     21660       1    2292    1873    5129    5135
CTETRA     21661       1     395    3666    2964    3852
CTETRA     21662       1    1414    1430    1429    1419
CTETRA     21663       1    2772     271    1382    3976
CTETRA     21664       1    1380    1381    1382    3977
CTETRA     21665       1    5011    1601    3092    2289
CTETRA     21666       1    2978    2924    2976    4461
CTETRA     21667       1     840    2293    2292    2290
CTETRA     21668       1    1381    2772    1382    3911
CTETRA     21669       1      84    2400    2326    1471
CTETRA     21670       1    2891    1348    4568    4485
CTETRA     21671       1    2891    2892    4485    4484
CTETRA     21672       1     502     501    1196    2893
CTETRA     21673       1    1127    1121     459    1120
CTETRA     21674       1    2891    2166    1354    2892
CTETRA     21675       1    2988    4554    3024    2967
CTETRA     21676       1     969    1470    2400    1471
CTETRA     21677       1    1129      85    2759    1127
CTETRA     21678       1    1193    1128     386    1122
CTETRA     21679       1     779     688    1240     854
CTETRA     21680       1    1609    1607    1617     880
CTETRA     21681       1      85    3750    2759    3794
CTETRA     21682       1      85    1127    3795    3794
CTETRA     21683       1    3790    1127    2759    3794
CTETRA     21684       1     177    4660    2323    4640
CTETRA     21685       1     114    1722    1544     745
CTETRA     21686       1     737    1544     959    2679
CTETRA     21687       1    1919    2483    1979    3046
CTETRA     21688       1    4691    4660     174     177
CTETRA     21689       1     691     959    2730     176
CTETRA     21690       1     767     779     688    1543
CTETRA     21691       1    2724    2726    4481    2966
CTETRA     21692       1    2414    2999    3614    2931
CTETRA     21693       1    1326    1327    4604    2575
CTETRA     21694       1    1979    3777    1978    3046
CTETRA     21695       1    1979    2483    3761    3046
CTETRA     21696       1     813    2143    2520    1288
CTETRA     21697       1    1918     177    2323    2188
CTETRA     21698       1    1701    2987    4551    2967
CTETRA     21699       1    2986    1701    2987    4546
CTETRA     21700       1    2562    2668    4307    4304
CTETRA     21701       1     452    2986    2989    2893
CTETRA     21702       1    1354    1348    1353    3029
CTETRA     21703       1    2988    4554    1701    4540
CTETRA     21704       1    1701    2967    4551    4554
CTETRA     21705       1    2306    2309    1822    2935
CTETRA     21706       1     929    2642    3929    3936
CTETRA     21707       1    1093    2463     790    1094
CTETRA     21708       1    2642     790    1095     985
CTETRA     21709       1     790    1093     985     984
CTETRA     21710       1    2203    1891    2826    2827
CTETRA     21711       1    2515    4991    4970    4969
CTETRA     21712       1     710    2492    1472    2748
CTETRA     21713       1     304    1167     385     308
CTETRA     21714       1    1635    1352    2376    1355
CTETRA     21715       1    1471    1472    3727    2748
CTETRA     21716       1     797    2239    4728    2242
CTETRA     21717       1    2505    1997    1113     797
CTETRA     21718       1     797    4728    2239    4710
CTETRA     21719       1    1844     621    1209     622
CTETRA     21720       1    2003    2001    1996    2814
CTETRA     21721       1     797    2633    4713    4710
CTETRA     21722       1     798    4711    4713    2633
CTETRA     21723       1    2307    2147    3186    2308
CTETRA     21724       1    4710    2633    2505     797
CTETRA     21725       1     818    5268    5284    5285
CTETRA     21726       1     282     208     882     884
CTETRA     21727       1    1008    1209     621    1027
CTETRA     21728       1     795     951     786     796
CTETRA     21729       1     632     633    2416    3359
CTETRA     21730       1     667    3622    3621    3632
CTETRA     21731       1    4711     368    2633     798
CTETRA     21732       1    3637    1026    3650    1209
CTETRA     21733       1     428    2416    1026     275
CTETRA     21734       1     261     625    1445     795
CTETRA     21735       1    2688     622    1209    3357
CTETRA     21736       1     621    1209     622    3356
CTETRA     21737       1     260    1411    5278     264
CTETRA     21738       1    1305    4718    4707    4717
CTETRA     21739       1     428    1207     429     275
CTETRA     21740       1    2131     264     993    5279
CTETRA     21741       1     767     510     768    1543
CTETRA     21742       1     269    2687     271    2772
CTETRA     21743       1     746    1722     738    1971
CTETRA     21744       1     820    3879    2884    2520
CTETRA     21745       1    2143    2520    1288    3879
CTETRA     21746       1     269    2772    2399    2687
CTETRA     21747       1    2306    3148    2313    2310
CTETRA     21748       1    3063    3866    2908    3821
CTETRA     21749       1    3064    2976    4460    4881
CTETRA     21750       1    2203    2136    2827    2826
CTETRA     21751       1    2306    1822    3146    3157
CTETRA     21752       1    2652     740    5092    5088
CTETRA     21753       1     726    2698    2880    2699
CTETRA     21754       1     848    1151    5018    1153
CTETRA     21755       1    2625    5123    3011    5097
CTETRA     21756       1    3075    2516    2826    4969
CTETRA     21757       1    3075    2826    4990    4969
CTETRA     21758       1    2751    4986    2516    4985
CTETRA     21759       1     760    4969    4968    2826
CTETRA     21760       1    2537    3173    2307    3182
CTETRA     21761       1    2256    4951    2815    4929
CTETRA     21762       1     983    1891    2826    2203
CTETRA     21763       1    2589    2039    4794    4797
CTETRA     21764       1    2201    2505    4681    4471
CTETRA     21765       1    1997     797    2505    2633
CTETRA     21766       1    2307    2147    3182    3186
CTETRA     21767       1    2201    2505    2239    4681
CTETRA     21768       1    2202    4472    2505    4471
CTETRA     21769       1    1478    2305    3413    3419
CTETRA     21770       1    3642    3649    1395    2744
CTETRA     21771       1    2271    1948    3643    3644
CTETRA     21772       1    1395    1025    3649    3643
CTETRA     21773       1    1947    2602    2958      17
CTETRA     21774       1    2201    2003    4471    2006
CTETRA     21775       1    1528    5726    1279    5727
CTETRA     21776       1    1592    1845     425    2688
CTETRA     21777       1    2413    2112    2922    4724
CTETRA     21778       1     620    2241    2792    2240
CTETRA     21779       1    1395    1393    3642    2744
CTETRA     21780       1    1395    3642    1393    3655
CTETRA     21781       1    2744    3651     621    3355
CTETRA     21782       1     202     209     210    1857
CTETRA     21783       1    1683    3014    1531    1214
CTETRA     21784       1     118     505     119     117
CTETRA     21785       1    1726    3570    2299    3569
CTETRA     21786       1     587    2201    2890    4682
CTETRA     21787       1     564     443     442    1313
CTETRA     21788       1    2201    2890    4736    2239
CTETRA     21789       1    2201    4470     587    2006
CTETRA     21790       1    1386    4819    4806    4805
CTETRA     21791       1    1870    2066    2522    1871
CTETRA     21792       1    2764    2765    1738    1742
CTETRA     21793       1    2585    5336    5310    5335
CTETRA     21794       1    2522    1871    2066    4698
CTETRA     21795       1      54    1216    1215    1537
CTETRA     21796       1    1975    4805    4801    4818
CTETRA     21797       1    1962    1386    2523    1966
CTETRA     21798       1    1081    5332    5313    2417
CTETRA     21799       1    2522    2067    2523    4697
CTETRA     21800       1    1386    1966    4806    2523
CTETRA     21801       1    1178    3486    3554    3487
CTETRA     21802       1    3053    1761    3508    2383
CTETRA     21803       1    2959    2822    3551    3555
CTETRA     21804       1     472     465     470    2120
CTETRA     21805       1    1726    1328    3570    3617
CTETRA     21806       1    2285    3551    2959    2822
CTETRA     21807       1    3556    3552    2322    2639
CTETRA     21808       1    2322    2822    3555    3556
CTETRA     21809       1    3061    2639    3543    3018
CTETRA     21810       1    2991    2919    5340    5352
CTETRA     21811       1    1180    3554    3541    3542
CTETRA     21812       1    2022    2784    2761    1966
CTETRA     21813       1    3084    2886    3966    2927
CTETRA     21814       1     504    3015    2755    1565
CTETRA     21815       1    2976    2968    4460    4545
CTETRA     21816       1    3031    3853    2487    3818
CTETRA     21817       1    2886    3967    2887    3970
CTETRA     21818       1    3995    1745    2887     271
CTETRA     21819       1     271    3995    3968    2887
CTETRA     21820       1    1838    2959    2322    2822
CTETRA     21821       1    2959    2322    2822    3555
CTETRA     21822       1    1315    1871    3010    2066
CTETRA     21823       1    1315    3010    1871    2183
CTETRA     21824       1    3091    3541    1179    3485
CTETRA     21825       1    1726    2299    1729    3569
CTETRA     21826       1    1837    1761    1743    3498
CTETRA     21827       1    1762    2285    2959    2822
CTETRA     21828       1    3010    2183    1315    2219
CTETRA     21829       1    2090    1293     822    1047
CTETRA     21830       1    2673    2914    3667    3753
CTETRA     21831       1     502    2987    2986    1701
CTETRA     21832       1    1979     457    2179    1978
CTETRA     21833       1     565      31      32      29
CTETRA     21834       1    3060    3759    1977    1980
CTETRA     21835       1    1197    2894    2987     801
CTETRA     21836       1    2903    3848    2295    3667
CTETRA     21837       1    1121    3786    1122    3795
CTETRA     21838       1     215    1218     213    2501
CTETRA     21839       1    1106    2274    2470    2122
CTETRA     21840       1     148     727    1201    1200
CTETRA     21841       1    3076    4208    2657    4225
CTETRA     21842       1    1470    3735    2400    1471
CTETRA     21843       1    1684    1916    1832     696
CTETRA     21844       1    1136    4584    2728    4572
CTETRA     21845       1    1529    2547    2186    4220
CTETRA     21846       1    1338    3717    3680    3720
CTETRA     21847       1    2727    4488    1218    4581
CTETRA     21848       1     618     780    2792    2541
CTETRA     21849       1    2356    3092    2979    2716
CTETRA     21850       1    2356    2979    3092    3093
CTETRA     21851       1     148     391     394     729
CTETRA     21852       1     618    2541    1974     780
CTETRA     21853       1    2903    3094    3850     395
CTETRA     21854       1    3069    4481    2726    4545
CTETRA     21855       1    2125    1327    2472    2966
CTETRA     21856       1    1726    1727    1328    3617
CTETRA     21857       1    4588    4483    2472    2354
CTETRA     21858       1    2726    2354    3019    4543
CTETRA     21859       1    2125    2354     139    2966
CTETRA     21860       1    2354    4548    3019    4543
CTETRA     21861       1    1161    2629    3068    3002
CTETRA     21862       1     345    2166     369    1354
CTETRA     21863       1    2989    2354     501    2472
CTETRA     21864       1     148     144     391    1538
CTETRA     21865       1    1120      83      85    1127
CTETRA     21866       1     805    1247    1250    2967
CTETRA     21867       1     139    2726    2354    3019
CTETRA     21868       1    2179    1978    1126    3046
CTETRA     21869       1     174     693     176     692
CTETRA     21870       1    1596     802    2356     448
CTETRA     21871       1    1121    1978    1980    3785
CTETRA     21872       1     778     767     769     779
CTETRA     21873       1     209    2114     654     653
CTETRA     21874       1    2235    1318    1145    3431
CTETRA     21875       1      83    3795    1122    3752
CTETRA     21876       1     502    2986    2893    1701
CTETRA     21877       1    2326    2673    2294    3688
CTETRA     21878       1    1193    2326    2673    2294
CTETRA     21879       1    2326    1122    2673    3752
CTETRA     21880       1    1122    3753    2673    3752
CTETRA     21881       1    1193    2673    2914    2295
CTETRA     21882       1     474    2017    1235    1234
CTETRA     21883       1    2285    2959    3551    2946
CTETRA     21884       1    2220     995    2219     994
CTETRA     21885       1    2502    2504    1378    4612
CTETRA     21886       1    3509    3498    1740    1743
CTETRA     21887       1    2124    2273    2874    3765
CTETRA     21888       1    3010    1315    2118    2221
CTETRA     21889       1    2982    2124    3480    2273
CTETRA     21890       1    2274    3793    2272    2851
CTETRA     21891       1     414    1236     416     418
CTETRA     21892       1    4628     473     472     471
CTETRA     21893       1    3559    3491    2286      22
CTETRA     21894       1    2273    2874    3765    3775
CTETRA     21895       1    1541    2894    1538    2968
CTETRA     21896       1    1470    1471    1472    3736
CTETRA     21897       1    2893    4539    2989    4484
CTETRA     21898       1    2989    2354    4483    4548
CTETRA     21899       1     386    2673    1122    1825
CTETRA     21900       1     452    2989    2986    2354
CTETRA     21901       1    1984    1986    2356    2216
CTETRA     21902       1    2986    2354    2989    4548
CTETRA     21903       1    1869    2206    1854    1851
CTETRA     21904       1    1122    2673    3753    1825
CTETRA     21905       1    1121    3784    1980    1825
CTETRA     21906       1    1122    3786    1825    3753
CTETRA     21907       1      83      85    3795    3751
CTETRA     21908       1     764    4522    2910    4452
CTETRA     21909       1    1649    1650    1647    2497
CTETRA     21910       1    2707    2705    4875    4454
CTETRA     21911       1    1616     916    2909    2426
CTETRA     21912       1    2174    2176    1248    1246
CTETRA     21913       1     789    1789    3049    2060
CTETRA     21914       1     758     757     763     756
CTETRA     21915       1    2206    4368    2428    4373
CTETRA     21916       1    2939    3979    2217    4023
CTETRA     21917       1    1233    1646    3841    3672
CTETRA     21918       1    1649    1647    3706    2497
CTETRA     21919       1    1647    3671    2492    1646
CTETRA     21920       1    1647    3671    1646    3672
CTETRA     21921       1     391    1538     392     800
CTETRA     21922       1    1961    2039    4798    1966
CTETRA     21923       1    1963    1386    1966    1961
CTETRA     21924       1    1966    2523    2784    4799
CTETRA     21925       1    1962    2523    1372    2522
CTETRA     21926       1    1641    4804    2038    1691
CTETRA     21927       1    1372    2522    4807    1871
CTETRA     21928       1    1372    2522    2523    4806
CTETRA     21929       1    1853    1854    4914    2206
CTETRA     21930       1    3061    2513    3552    2639
CTETRA     21931       1    3056    2992    2395    2396
CTETRA     21932       1    1837    1183    2959    3488
CTETRA     21933       1    4913    1854    4914    1853
CTETRA     21934       1    2959    2322    3555    3553
CTETRA     21935       1    1853    4912    2451    4918
CTETRA     21936       1    1837    3488    2959    3489
CTETRA     21937       1    2450    2395    1083    5349
CTETRA     21938       1    2680    5350    1083    5349
CTETRA     21939       1    2208    1908    4898    4905
CTETRA     21940       1    2207    2058    1908    2490
CTETRA     21941       1    2208    4911    2451    4905
CTETRA     21942       1    1734    4361    4396    4855
CTETRA     21943       1     729    3031    2692    2882
CTETRA     21944       1    1023     371    2128    2129
CTETRA     21945       1     393    2692    2691    3094
CTETRA     21946       1    3090    4619    3038    2675
CTETRA     21947       1    3037    4600    3078    4464
CTETRA     21948       1    2030    1906     325    2209
CTETRA     21949       1    3069    2724    4481    4480
CTETRA     21950       1    1979    3777    3046    3761
CTETRA     21951       1    2180    1325    1326    1327
CTETRA     21952       1    1976    3060    1977    1980
CTETRA     21953       1    2486    3852    2964    3665
CTETRA     21954       1    2050    2051     141    2482
CTETRA     21955       1     647    2603    4426    2811
CTETRA     21956       1     207    2109    2235    2334
CTETRA     21957       1     207    1145    2235    1318
CTETRA     21958       1      68    3097    2605    2928
CTETRA     21959       1    1319    1318    5708    1320
CTETRA     21960       1    1146    1145    1318    5913
CTETRA     21961       1    2058    1711    2612    2057
CTETRA     21962       1    1853    1852    2451    4912
CTETRA     21963       1    2095    5049    5050    4998
CTETRA     21964       1     982    2932    3460     483
CTETRA     21965       1    2156    3444    2164    3443
CTETRA     21966       1    2056    1267    2612    4934
CTETRA     21967       1    4942    2056    2057    2612
CTETRA     21968       1    1853    4913    1852    4912
CTETRA     21969       1    2612    4941    2058    2057
CTETRA     21970       1     130    1712     132     131
CTETRA     21971       1     858    2179    1126    2337
CTETRA     21972       1    2725    3090    2724    4586
CTETRA     21973       1    2903    3849    3094    2690
CTETRA     21974       1    2885    2330    3805    3806
CTETRA     21975       1    2486    1977    3854    3665
CTETRA     21976       1     461    1977    2964    1980
CTETRA     21977       1    4602    4587    1325    2724
CTETRA     21978       1     590    1950    2631    1944
CTETRA     21979       1     816    2330     364    2884
CTETRA     21980       1    2885    2330    3806    3467
CTETRA     21981       1    2627    3060    3762    3663
CTETRA     21982       1     141    1604    4414    4415
CTETRA     21983       1     125    2151     595     444
CTETRA     21984       1     745    1968    1917     588
CTETRA     21985       1    2435    3467    2151    3602
CTETRA     21986       1    4416    4408     140    4415
CTETRA     21987       1     790     173    2642     792
CTETRA     21988       1     436    3075     389    3098
CTETRA     21989       1     361    1095    3802    1094
CTETRA     21990       1     435     437     984    1748
CTETRA     21991       1    2159    1765    2849    1061
CTETRA     21992       1    1095    3801    3802     790
CTETRA     21993       1    3902    1095    3801    3802
CTETRA     21994       1     790    1094    3814    3802
CTETRA     21995       1    2051    2481     141    2482
CTETRA     21996       1    2724    4587    2966    4481
CTETRA     21997       1    2968    3019    4544    4543
CTETRA     21998       1    2968    4543    2726    3019
CTETRA     21999       1    2903    2690    3848    3849
CTETRA     22000       1    1541    2968    3019    2894
CTETRA     22001       1     728     391    1956    1332
CTETRA     22002       1     142    1952    3001    1977
CTETRA     22003       1    2486     395    2964    3852
CTETRA     22004       1     395    2914    3666    3850
CTETRA     22005       1    2903    2914    3850    3667
CTETRA     22006       1    1538    2895    2968    2894
CTETRA     22007       1    2486    1977    3665    2964
CTETRA     22008       1    2980    3070    2978    4882
CTETRA     22009       1    2756    5033    5126    5034
CTETRA     22010       1     800    2979    2895    2894
CTETRA     22011       1     800     801     802    2716
CTETRA     22012       1    3069    2726    2968    4545
CTETRA     22013       1    1541    3019    2968    2726
CTETRA     22014       1     812     727    1201    2355
CTETRA     22015       1     800    2716    2979     801
CTETRA     22016       1     841    2293    1329    2291
CTETRA     22017       1    1332    1984    2216    1330
CTETRA     22018       1    3094    3850     395    3851
CTETRA     22019       1    2887    2687    3909    3968
CTETRA     22020       1    3068    3815    2700    3840
CTETRA     22021       1     241    1176    3028     244
CTETRA     22022       1     393    2903     395    3094
CTETRA     22023       1     387    2964     395    2914
CTETRA     22024       1     505      75     506     510
CTETRA     22025       1     454    1917    1968     463
CTETRA     22026       1     176    4773     174    4691
CTETRA     22027       1      44      53      51     357
CTETRA     22028       1     769    3607    3611    1965
CTETRA     22029       1    2414    3472    2931    3614
CTETRA     22030       1    2484    2483    3472    3763
CTETRA     22031       1    2999    3573    3613    3614
CTETRA     22032       1     779    2999    2414    2931
CTETRA     22033       1    3613    3603    3604     768
CTETRA     22034       1    2444    4755    2920    4754
CTETRA     22035       1    1979    2483    3763    3761
CTETRA     22036       1     458     501    2180     369
CTETRA     22037       1    2986    4548    2989    4539
CTETRA     22038       1    2988    4540    2893    4570
CTETRA     22039       1    2988    2893    4540    1701
CTETRA     22040       1    2893    4484    2989    2892
CTETRA     22041       1    2989    2892     501    2893
CTETRA     22042       1    2893    4484    2891    4570
CTETRA     22043       1     460     462    1195     459
CTETRA     22044       1    1120      83    1127    1122
CTETRA     22045       1    2988     502    1196    2893
CTETRA     22046       1      84      85      86    2009
CTETRA     22047       1    2400      86    3686    3685
CTETRA     22048       1    2326      83    1122    3752
CTETRA     22049       1    2400      83    3687    3686
CTETRA     22050       1    1672    4757    4758    4761
CTETRA     22051       1    1053    1861    2864    2283
CTETRA     22052       1    2863    2844    5254    2864
CTETRA     22053       1    2481    2482    4430    4422
CTETRA     22054       1    2796    1119    2210    1974
CTETRA     22055       1      80     426    2442    1345
CTETRA     22056       1    2671     121    2685    2649
CTETRA     22057       1     261    1411     624    2775
CTETRA     22058       1    2475     566    1540    4751
CTETRA     22059       1     619    2779    4745     566
CTETRA     22060       1     461     457    1976     462
CTETRA     22061       1    2982    3053    3519    2382
CTETRA     22062       1    2121    2124    2273    2874
CTETRA     22063       1    1235    2502    2504    1378
CTETRA     22064       1    1683    1300    1298    1299
CTETRA     22065       1    2124    2874    1335    3765
CTETRA     22066       1    2124    3480    2273    3765
CTETRA     22067       1     469     471    2118    1378
CTETRA     22068       1    1334    3743    3755    3744
CTETRA     22069       1     978    2694    2693    2695
CTETRA     22070       1    2606    2974    2957    4268
CTETRA     22071       1     973    2409    1802    2974
CTETRA     22072       1    3042    1188    4417    4865
CTETRA     22073       1    2908    2690    3847    2907
CTETRA     22074       1    1135    2690    2908    2907
CTETRA     22075       1     393    2691    2690    3094
CTETRA     22076       1    3912    3062    3913    1380
CTETRA     22077       1     142    3060    1977    1976
CTETRA     22078       1    1379    1184    1987    3083
CTETRA     22079       1     233    2897    2913    3028
CTETRA     22080       1     697    2124    2982    2273
CTETRA     22081       1     348    2376    1346     213
CTETRA     22082       1    3053    3519    2382    3492
CTETRA     22083       1    2694    2382    2982    3519
CTETRA     22084       1    2118     469     470     471
CTETRA     22085       1    2982    2694    2124     697
CTETRA     22086       1    2118    3010    4667    2066
CTETRA     22087       1    3010    2219    4648    4668
CTETRA     22088       1    2119    4646    4665     473
CTETRA     22089       1    2543     351    5318    5347
CTETRA     22090       1    3010    2183    4668    4699
CTETRA     22091       1    2183    3010    1871    4699
CTETRA     22092       1    2725    3090    4586    4585
CTETRA     22093       1    2880    3818    3031    2487
CTETRA     22094       1    1972    2725    3090    2724
CTETRA     22095       1    1824    2589    2590    2347
CTETRA     22096       1    2976    4461    3069    4545
CTETRA     22097       1    1541    3069    2726    2968
CTETRA     22098       1     139    2724    2966    2726
CTETRA     22099       1    1977    3665    1980    3759
CTETRA     22100       1    1544    2679    2676    2806
CTETRA     22101       1    3664    3060    1977    1952
CTETRA     22102       1    2629    1950    3856    1951
CTETRA     22103       1    2820    2816    5317    5330
CTETRA     22104       1     147     146     387     394
CTETRA     22105       1    2180    1327    2575    2686
CTETRA     22106       1    3038    3089    4600    4601
CTETRA     22107       1    3763    3060    2627    2484
CTETRA     22108       1     394    2692    3094    2882
CTETRA     22109       1    2484    1979    2483    3763
CTETRA     22110       1     769    2916    3604     768
CTETRA     22111       1    1326    2575    4604    4621
CTETRA     22112       1    1325    4603    1327    4588
CTETRA     22113       1     462    1825    1121    1980
CTETRA     22114       1    1327    4604    2686    4589
CTETRA     22115       1     768    2414    2999    3603
CTETRA     22116       1    1326    1327    4603    4604
CTETRA     22117       1    2472    4589    1327    2686
CTETRA     22118       1    2472    2966    4588    2354
CTETRA     22119       1    1979    3760    1978    3777
CTETRA     22120       1    1978    1126    3777    3787
CTETRA     22121       1    1978    1980    3785    3759
CTETRA     22122       1    1121    1126    1978    3787
CTETRA     22123       1     462    1121    1978    1980
CTETRA     22124       1    2125    1325    1327    2966
CTETRA     22125       1    2125    2966    2472    2354
CTETRA     22126       1     489    1169    3015    2831
CTETRA     22127       1    1569    2927    1746    1745
CTETRA     22128       1    2465    1168    2717    5102
CTETRA     22129       1    1205    2888    1586    2325
CTETRA     22130       1    1909    1876    2507    2831
CTETRA     22131       1     161     931    2005    1705
CTETRA     22132       1    1693    5329    2543    5318
CTETRA     22133       1    2896    3254    3249    3250
CTETRA     22134       1    1204     162    3066    1206
CTETRA     22135       1     214    1350    4610    4593
CTETRA     22136       1    2017    1235     216    1378
CTETRA     22137       1     465     471     214     472
CTETRA     22138       1    2458    1232    1134    2272
CTETRA     22139       1     214     471    4611    4610
CTETRA     22140       1     214     472     471    4610
CTETRA     22141       1    1875    2930    2953    1319
CTETRA     22142       1    3390    3384    2930    1319
CTETRA     22143       1    1795    5710     586    1797
CTETRA     22144       1    5711    5710    1797    2133
CTETRA     22145       1    2802    3396    4390    3395
CTETRA     22146       1    1605    1603     518    2155
CTETRA     22147       1    5711    1797    5712    1210
CTETRA     22148       1    2589    2347    4794    2590
CTETRA     22149       1    1960    2820    5331    5330
CTETRA     22150       1    1014    1017    1029    1015
CTETRA     22151       1    2217    1380    3978    2939
CTETRA     22152       1     109    2735     410    2378
CTETRA     22153       1    1416    1418    1417    1873
CTETRA     22154       1    1555    2721    2217    2780
CTETRA     22155       1    1379    3083    1381    1380
CTETRA     22156       1    1984    3064    3093    1985
CTETRA     22157       1    2895    4544    2968    2894
CTETRA     22158       1    2979    4879    3093    4459
CTETRA     22159       1    1954    2895    3064    2976
CTETRA     22160       1    5033    2985    2756    2293
CTETRA     22161       1    2895    2894    4459    4544
CTETRA     22162       1    2976    2895    4460    2968
CTETRA     22163       1    1641    1693    5323    5322
CTETRA     22164       1    1984    2979    3093    2895
CTETRA     22165       1    3063    3032    3865    2691
CTETRA     22166       1    2979    4549    2894     801
CTETRA     22167       1     147    2486    2882     395
CTETRA     22168       1    1972    3055    3089    2725
CTETRA     22169       1    2687     271    3976    3968
CTETRA     22170       1    2908    2690    2691    3821
CTETRA     22171       1     729    3031    3096    2692
CTETRA     22172       1    2691    2690    3849    3821
CTETRA     22173       1    2472    2989    4484    2892
CTETRA     22174       1     369    2574    2472    2686
CTETRA     22175       1     855    1839    2314    2337
CTETRA     22176       1    2472    2574    4590    2686
CTETRA     22177       1    2472    4590    2574    2892
CTETRA     22178       1    2472    2989    4483    4484
CTETRA     22179       1    1121    1127    1126    3795
CTETRA     22180       1    1121    3795    1122    1127
CTETRA     22181       1     459    1978    1121    1126
CTETRA     22182       1    1121    1978    3785    3787
CTETRA     22183       1    1120    1121    1122    1127
CTETRA     22184       1    2365    2366    3336    3323
CTETRA     22185       1     965     502    1196    2988
CTETRA     22186       1    1538    1539    1541    2976
CTETRA     22187       1    1120     459     462    1121
CTETRA     22188       1    1767    2748     710     971
CTETRA     22189       1    1196    2891    2988    2893
CTETRA     22190       1    1659    2646     227    3228
CTETRA     22191       1    1471    3727    1472    3736
CTETRA     22192       1    1471    2326    3728    3687
CTETRA     22193       1    2326    2294    3728    3688
CTETRA     22194       1    2326    2673    3688    3752
CTETRA     22195       1    3070    4462    2924    4882
CTETRA     22196       1    2725    4586    2724    4480
CTETRA     22197       1    2976    4545    3069    2968
CTETRA     22198       1    2755    2756    1565    5127
CTETRA     22199       1    2980    2978    2977    5014
CTETRA     22200       1    1538    2976    2968    2895
CTETRA     22201       1     143    3001    2486    1977
CTETRA     22202       1     144     139     452    1197
CTETRA     22203       1    2882    2486    3852     395
CTETRA     22204       1    2882    3094     395    3851
CTETRA     22205       1    3031    2692    2882    3819
CTETRA     22206       1    2487    3853    2486    3854
CTETRA     22207       1    3090    2724    4586    4602
CTETRA     22208       1     138     453    1972    1971
CTETRA     22209       1    2180    1326    2575    1327
CTETRA     22210       1    3035    4639    2188    4621
CTETRA     22211       1     736    3035    2188    1326
CTETRA     22212       1    3060    1980    1978    3759
CTETRA     22213       1    1979    3760    3060    1978
CTETRA     22214       1     591    2484    2414    3471
CTETRA     22215       1    3759    3664    3060    1977
CTETRA     22216       1    1919    2483    3046    2339
CTETRA     22217       1    1013    2462    1280    1281
CTETRA     22218       1     168     373     537     536
CTETRA     22219       1    2752    2753    2161     406
CTETRA     22220       1    2463    3814     790    1094
CTETRA     22221       1    1978    1979    3046    2179
CTETRA     22222       1     649    2114     648     209
CTETRA     22223       1    1280    2462    2921    3661
CTETRA     22224       1    1280    5725    2462    3661
CTETRA     22225       1    2462    2921    3661    3463
CTETRA     22226       1    2371    4885    1151    1153
CTETRA     22227       1     271    1745     272     270
CTETRA     22228       1    2756    5126    2293    1565
CTETRA     22229       1    3011    1169    5124    3015
CTETRA     22230       1     143     142    1943    3001
CTETRA     22231       1    1329    2756    2985    2293
CTETRA     22232       1    2687    2772    3976     271
CTETRA     22233       1    1659    3228     227    3204
CTETRA     22234       1    1819    1574    2436    1820
CTETRA     22235       1     213     214    4593    1350
CTETRA     22236       1    3781    2851    2786    2332
CTETRA     22237       1    2244    2332    2272    2458
CTETRA     22238       1    1880    1698    1838    1697
CTETRA     22239       1    1216    1136    2729    2728
CTETRA     22240       1    1346    1348    1349    4486
CTETRA     22241       1     747     748     749     464
CTETRA     22242       1    2727    4577    1355    4487
CTETRA     22243       1    1346    1349    4592    4486
CTETRA     22244       1    1346    4592    1350    4593
CTETRA     22245       1    2178    2179    3046    1919
CTETRA     22246       1      88    1863    1862    2250
CTETRA     22247       1    3037    4618    3038    4600
CTETRA     22248       1    2283    1050    1053    1861
CTETRA     22249       1    4773    4772    1190    1189
CTETRA     22250       1    2631    2629    3856    3808
CTETRA     22251       1     693    1190    1192    1189
CTETRA     22252       1    1163     125     110     119
CTETRA     22253       1    2672    4637    3038    4618
CTETRA     22254       1     590    3470    2631    1950
CTETRA     22255       1    2488    1951    3858    3001
CTETRA     22256       1    3078    1155    1154    3089
CTETRA     22257       1    2484    2414    3471    3472
CTETRA     22258       1     512     117     510     505
CTETRA     22259       1    3611    2916    3604     769
CTETRA     22260       1    1917     591    2484    2414
CTETRA     22261       1    2473    1325    3090    4602
CTETRA     22262       1    1950    3856    1951    3663
CTETRA     22263       1     145    2725    2724    3069
CTETRA     22264       1     768    2803    3615    3613
CTETRA     22265       1    2696    2700     820    3860
CTETRA     22266       1    3001    1977    3664    3854
CTETRA     22267       1     545    2714    2713    2552
CTETRA     22268       1    2536     109    2313    2735
CTETRA     22269       1    2947    2264    2262    2265
CTETRA     22270       1    2703    2713    2278    5183
CTETRA     22271       1    2553    2552    2703    5025
CTETRA     22272       1    1031     776    1044    2646
CTETRA     22273       1    1588    2278    1435     412
CTETRA     22274       1    2723    2438    3873    3893
CTETRA     22275       1    2061    2723    2438    3873
CTETRA     22276       1     549    1649    2368    2497
CTETRA     22277       1    2129    3984    2128    2854
CTETRA     22278       1    2128    3983    2854    3984
CTETRA     22279       1    3178    3073     187    3105
CTETRA     22280       1    3030    2060    3871     793
CTETRA     22281       1    3067    2061    3829    3837
CTETRA     22282       1    2389    4118    2263    4106
CTETRA     22283       1    2432     844    5003    4870
CTETRA     22284       1    1068    2740    1076    1894
CTETRA     22285       1    1510    2645    3120    3117
CTETRA     22286       1     915    4449    4513    4512
CTETRA     22287       1     524    5020    5195    5196
CTETRA     22288       1    1115     843     844    4869
CTETRA     22289       1     912    1895     913     915
CTETRA     22290       1     723    3031    3863    3096
CTETRA     22291       1    3762    3763    3060    2627
CTETRA     22292       1    1971    3038    3090    3089
CTETRA     22293       1    3055    4585    2725    4462
CTETRA     22294       1    3089    2725    4585    3090
CTETRA     22295       1     111     114    1721     121
CTETRA     22296       1    1976     463    3060    1979
CTETRA     22297       1     111    1270    1271     808
CTETRA     22298       1    3001    1952    3858    3664
CTETRA     22299       1    1951    3001    1952    3858
CTETRA     22300       1    1951    1952    3663    3858
CTETRA     22301       1     142    1951    3001    1952
CTETRA     22302       1    2488    3855    3001    3858
CTETRA     22303       1     811    3002    3068    2700
CTETRA     22304       1     589    3470     591    3607
CTETRA     22305       1    2924    2725    3069    4480
CTETRA     22306       1    1957    2487    2882    2486
CTETRA     22307       1    1154    3089    3055    3078
CTETRA     22308       1    1137    2715    1646    2494
CTETRA     22309       1    2924    2976    4461    3069
CTETRA     22310       1    1985    5033    2985    5013
CTETRA     22311       1    2602    2518     842     663
CTETRA     22312       1    2976    1539    1541    3069
CTETRA     22313       1    2882    3852    2486    3853
CTETRA     22314       1    1331    2774    3063    3032
CTETRA     22315       1    2399    2687    3910    3883
CTETRA     22316       1    2692    3032    3820    3864
CTETRA     22317       1    2692    3094    3851    3820
CTETRA     22318       1    1541     139    1197    3019
CTETRA     22319       1    2753    2258    4932    4933
CTETRA     22320       1    4993    2160    4972    2159
CTETRA     22321       1    2257    2752    2753    4931
CTETRA     22322       1    1003    2161    2923    2855
CTETRA     22323       1    2751    2515    4985    2516
CTETRA     22324       1    2160    2515    3098    4992
CTETRA     22325       1    2515    4985    2516    4969
CTETRA     22326       1     389    3075    4991    3098
CTETRA     22327       1     837    1768    1988    1331
CTETRA     22328       1    1199    1955    2980    3070
CTETRA     22329       1     237    5145    2430    5138
CTETRA     22330       1    2886    1745    3967    3966
CTETRA     22331       1     340    2625    5096    2754
CTETRA     22332       1    3011    2755    3015    5123
CTETRA     22333       1    3059    4584    4583    4582
CTETRA     22334       1    1757    1099    2453    2470
CTETRA     22335       1    2301    2728    4573    2169
CTETRA     22336       1    2495    3059    1817    2659
CTETRA     22337       1    2302    4499    2173    4575
CTETRA     22338       1      36    2547    4064      34
CTETRA     22339       1    2426    2909    2732    4112
CTETRA     22340       1    2176     578    1143     576
CTETRA     22341       1    3041    1353    1635    1355
CTETRA     22342       1    2733    2391    3739    3742
CTETRA     22343       1    2850    2878    3737    3730
CTETRA     22344       1    3730    2850     998    3731
CTETRA     22345       1    1644    3673    2638    2768
CTETRA     22346       1     739     453     138    1971
CTETRA     22347       1    2692    3820    3032    2691
CTETRA     22348       1    2293    5033    5126    2756
CTETRA     22349       1    1956    2692    3032    2691
CTETRA     22350       1    2289    2291    5032    2292
CTETRA     22351       1    1184    2939    3083    1379
CTETRA     22352       1    3093    4880    2895    4459
CTETRA     22353       1     242    2899     243    3823
CTETRA     22354       1    3064    3093    4880    2895
CTETRA     22355       1     800    2979    2894     801
CTETRA     22356       1    2692    2882    3851    3094
CTETRA     22357       1     236     246     447     233
CTETRA     22358       1    3062    2774    1381    3885
CTETRA     22359       1    2691    3094    3849    2690
CTETRA     22360       1     247    2706    3040    3039
CTETRA     22361       1    2291    2292    2293    5116
CTETRA     22362       1    3064    2976    2895    4460
CTETRA     22363       1    1956    3032    3063    2691
CTETRA     22364       1    2291    2293    5033    5116
CTETRA     22365       1    2985    2291    2293    5033
CTETRA     22366       1    2774    3911    1381    3885
CTETRA     22367       1    1570    2755    2754    2756
CTETRA     22368       1    1956    3063    2908    2691
CTETRA     22369       1     393    3094     394    2692
CTETRA     22370       1     840    2289    2292    2291
CTETRA     22371       1    1984    1986    1985    3093
CTETRA     22372       1    2774    2772    3911    3884
CTETRA     22373       1    2549    4516    4515    4520
CTETRA     22374       1      73    1070     549     304
CTETRA     22375       1    2550    4515    4516    4519
CTETRA     22376       1     385     383    2345    2357
CTETRA     22377       1    1167    2357    3034    2167
CTETRA     22378       1    2368    2766    3708    3710
CTETRA     22379       1    2252    2670    2643    2990
CTETRA     22380       1     964     711     706     578
CTETRA     22381       1    2961    3696    3712    3697
CTETRA     22382       1    2739    3705    3698    3699
CTETRA     22383       1    2497    2368    3708    3706
CTETRA     22384       1    3872    3828    3873    2723
CTETRA     22385       1    3699    3674    2768    2644
CTETRA     22386       1    4471    2202    4892    2003
CTETRA     22387       1     875     890    1434    1458
CTETRA     22388       1    2003    2814    4892    4950
CTETRA     22389       1    1393    3641    2305    3354
CTETRA     22390       1    4472    2633    4680    3048
CTETRA     22391       1    1280    3660    2921    2743
CTETRA     22392       1    2257    4984    2751    2515
CTETRA     22393       1    4929     761     592    2815
CTETRA     22394       1    1879    2751    2516    2515
CTETRA     22395       1     179    1279     185    1281
CTETRA     22396       1     179    1279    1280    1282
CTETRA     22397       1     882    3095    2474    2945
CTETRA     22398       1    1949    2952    1478    1760
CTETRA     22399       1    1282    3659    2743    2902
CTETRA     22400       1    1393    1282    2902    3655
CTETRA     22401       1    1282    2902    3655    3659
CTETRA     22402       1    3048    4474    4894     366
CTETRA     22403       1    1128    1122    2326      83
CTETRA     22404       1    2692    2691    3094    3820
CTETRA     22405       1    2981    2985    2756    5034
CTETRA     22406       1    1414     668     669    1415
CTETRA     22407       1    3096    2692    3819    3864
CTETRA     22408       1    1664    1872     833     834
CTETRA     22409       1     337    1329    1570    2981
CTETRA     22410       1    2978    2977    4881    3064
CTETRA     22411       1    1414    1432    1655     668
CTETRA     22412       1     806    1151    1150     678
CTETRA     22413       1     732    2692    3096    3032
CTETRA     22414       1    1330    2985    1985    2291
CTETRA     22415       1     726    2698     723    2880
CTETRA     22416       1    1198    1150     677     806
CTETRA     22417       1     841     840     832     833
CTETRA     22418       1    3032    2774    3865    3884
CTETRA     22419       1    3064    2895    4880    4460
CTETRA     22420       1    1986    1985    3093    5012
CTETRA     22421       1    1986    5012    3093    4879
CTETRA     22422       1    3092    2716    4878    4458
CTETRA     22423       1    2979    3092    4458    2716
CTETRA     22424       1     393    2903    3094    2690
CTETRA     22425       1    2979    3093    2895    4459
CTETRA     22426       1     707     706     703     711
CTETRA     22427       1    2216    1601     448    1989
CTETRA     22428       1    1331    2399    2772    2774
CTETRA     22429       1    1596    3092    2716    4878
CTETRA     22430       1    3823     243    2908    2899
CTETRA     22431       1    3030    1175    1174    3049
CTETRA     22432       1    3062    3867     244     243
CTETRA     22433       1    3063    3821    2908    2691
CTETRA     22434       1    3083    1381    1380    3062
CTETRA     22435       1    2276    3843    2899    3824
CTETRA     22436       1    1601    4878    5010    5011
CTETRA     22437       1    2279    1402    2281    2280
CTETRA     22438       1    2702    2703    5026    5025
CTETRA     22439       1    2553    2552    5025    5024
CTETRA     22440       1     842    5296    5292    5294
CTETRA     22441       1    1164    1167     757    1166
CTETRA     22442       1    2665    2128    3917    3983
CTETRA     22443       1    2664    3917    2128    3918
CTETRA     22444       1    2129    3919    2870    3984
CTETRA     22445       1     380    2664    2128    2870
CTETRA     22446       1     633    3408    2688    3410
CTETRA     22447       1     793    2870    3892    3891
CTETRA     22448       1    3030    3099    3890    3870
CTETRA     22449       1    2064    1644    3673    2638
CTETRA     22450       1    1917    2484    2483    2414
CTETRA     22451       1    2484    3060    1979    3763
CTETRA     22452       1    2700    3815     820    3860
CTETRA     22453       1    1457    1581    1582    1456
CTETRA     22454       1     664     663     842     817
CTETRA     22455       1    3663    3060    3664    1952
CTETRA     22456       1    1202    2117    2808      17
CTETRA     22457       1    2884     821     819     820
CTETRA     22458       1    1727    2803     768     509
CTETRA     22459       1    1950    3060    3663    1952
CTETRA     22460       1    3760    3060    1978    3759
CTETRA     22461       1    1325    3090    4602    2724
CTETRA     22462       1    2473    3035    1326    4620
CTETRA     22463       1    4587    1325    2724    2966
CTETRA     22464       1    4620    2473    1325    1326
CTETRA     22465       1     453    1325    2724    3090
CTETRA     22466       1    1325    4588    2966    4587
CTETRA     22467       1    1325    4588    1327    2966
CTETRA     22468       1    1507    1901     927    1921
CTETRA     22469       1    2213     485    2191     484
CTETRA     22470       1    1765    2158    2159    3098
CTETRA     22471       1    1765    2159    2160    3098
CTETRA     22472       1    1765    2161    2159    2849
CTETRA     22473       1     536     909    5045    5077
CTETRA     22474       1    2958    3415    1592    3405
CTETRA     22475       1    1404    4838    1405    1938
CTETRA     22476       1    1405    1939    4839    4838
CTETRA     22477       1    2480    2610    2338    4432
CTETRA     22478       1    1938    1937    4837    4849
CTETRA     22479       1    1985    2985    5033    2291
CTETRA     22480       1    3093    5013    4880    5012
CTETRA     22481       1    1985    2291    5033    5012
CTETRA     22482       1    1986    1985    5012    2291
CTETRA     22483       1    3064    5013    4880    3093
CTETRA     22484       1    2977    1985    2985    5013
CTETRA     22485       1    3063    2691    3865    3821
CTETRA     22486       1    2978    2977    5014    4881
CTETRA     22487       1    1330    1986    2291    1985
CTETRA     22488       1    3063    3032    2774    3865
CTETRA     22489       1    3032    3884    2399    2774
CTETRA     22490       1    2774    1331    1988    1381
CTETRA     22491       1    3063    2774    3885    3865
CTETRA     22492       1    3032    2691    3820    3865
CTETRA     22493       1    3032    2399    3884    3864
CTETRA     22494       1     143    2488    2487    3001
CTETRA     22495       1    2977    2985    5034    5013
CTETRA     22496       1    1989     837     841     840
CTETRA     22497       1     481     334    1570     482
CTETRA     22498       1     732    3096    2399    3032
CTETRA     22499       1    2978    2924    4461    4882
CTETRA     22500       1    2978    3064    4881    2976
CTETRA     22501       1    2981    2977    2985    5034
CTETRA     22502       1    2651     740     660    2652
CTETRA     22503       1    3096    3032    3864    2399
CTETRA     22504       1    3031    2882    3853    3819
CTETRA     22505       1    3031    3096    3819    3863
CTETRA     22506       1    2487    3001    3854    2486
CTETRA     22507       1    2489    2985    2977    1985
CTETRA     22508       1    1984    3064    2895    3093
CTETRA     22509       1    3480    3479    2982    2273
CTETRA     22510       1    2982    3519    3053    3491
CTETRA     22511       1    2982    2124    3481    3480
CTETRA     22512       1    2118     473    4666    4647
CTETRA     22513       1     416    2502     415    2218
CTETRA     22514       1    3080    2694    3481    3517
CTETRA     22515       1    2500    5300    1947    5298
CTETRA     22516       1    3010    2219    1315    2221
CTETRA     22517       1    4649    4648    2218    2219
CTETRA     22518       1    2221    1378    4629    4630
CTETRA     22519       1    4647    1378    2221    2118
CTETRA     22520       1    1683    1916    1237    1333
CTETRA     22521       1    1315    3010    2118    2066
CTETRA     22522       1    2118    2066    4667    4666
CTETRA     22523       1     981    2982    2382    3053
CTETRA     22524       1     959    3035    4639     177
CTETRA     22525       1     688    1543     779    1310
CTETRA     22526       1     737    3035    2473    2675
CTETRA     22527       1     778     769     591    2414
CTETRA     22528       1    3035    1326    4620    4621
CTETRA     22529       1    4640    4639    2188     177
CTETRA     22530       1    1946    3399    2808    3398
CTETRA     22531       1    3035    1326    4621    2188
CTETRA     22532       1    3470    2631     589     590
CTETRA     22533       1    1946    1388    3420    3422
CTETRA     22534       1    2916     769     510     768
CTETRA     22535       1    1971    2675    2473    3090
CTETRA     22536       1    2627    3663    1950    3060
CTETRA     22537       1    3612    3607     769     591
CTETRA     22538       1    1721    2372    3088    3037
CTETRA     22539       1     143    1977     147     461
CTETRA     22540       1     736    2473    3035    1326
CTETRA     22541       1    1640      82    2418    1010
CTETRA     22542       1    3054    2538    3599    1728
CTETRA     22543       1     664    5268     817    5293
CTETRA     22544       1    1244    3756    4281    4282
CTETRA     22545       1    1136    2729    2728    4584
CTETRA     22546       1    1218    4489     213    2501
CTETRA     22547       1    1636    1614    2728    2169
CTETRA     22548       1    1533    1530    1531    1529
CTETRA     22549       1    2981    2977    5034    5014
CTETRA     22550       1    2301    2169    4573    2302
CTETRA     22551       1    2169    4573    2302    4575
CTETRA     22552       1     322    2440     323    2996
CTETRA     22553       1     320    1117    2452    2440
CTETRA     22554       1    2620    4076    2621    2663
CTETRA     22555       1    2669    2739    3705    3704
CTETRA     22556       1     721    2812     861     719
CTETRA     22557       1    1069    1157     912    1159
CTETRA     22558       1    2384    4129    4160    4130
CTETRA     22559       1    2834    2835    3831    2437
CTETRA     22560       1    1286    1288    1287    2143
CTETRA     22561       1    1943    2629    3002    1951
CTETRA     22562       1    3055    2924    4462    2725
CTETRA     22563       1    2487    3001    3855    3854
CTETRA     22564       1    1200    2924    2725    3069
CTETRA     22565       1    1539    2924    3069    2976
CTETRA     22566       1    1954    2978    2976    3064
CTETRA     22567       1    2981    2754    5127    2756
CTETRA     22568       1    2400    3687    1471    3735
CTETRA     22569       1    1617    2391    2733    3022
CTETRA     22570       1      84    2326    2400      83
CTETRA     22571       1      86    3751      83    3686
CTETRA     22572       1    1596    4878    1601    3092
CTETRA     22573       1    2981    2756    5127    5034
CTETRA     22574       1    1256    4172    1116    4167
CTETRA     22575       1     839    2636    1873    2292
CTETRA     22576       1    1331    2774    3032    2399
CTETRA     22577       1     233    3027     241    3028
CTETRA     22578       1    2468    2289    5031    5134
CTETRA     22579       1    1986    2291    5012    5032
CTETRA     22580       1    1986    3092    5011    4879
CTETRA     22581       1    3083    3886    3062    3913
CTETRA     22582       1    1986    3092    4879    3093
CTETRA     22583       1    1988    3062     243    3063
CTETRA     22584       1    1064    1020    2571     776
CTETRA     22585       1    2216    2289    1986    3092
CTETRA     22586       1    2468    5031    1601    5030
CTETRA     22587       1    2289    2636    5128    5134
CTETRA     22588       1    3867    3063    2908     243
CTETRA     22589       1     121     122     114    1212
CTETRA     22590       1    2422     845    2554    2555
CTETRA     22591       1    3062    3063    2774    3885
CTETRA     22592       1    3866    3867    3063    2908
CTETRA     22593       1     548    2079      33     881
CTETRA     22594       1      58    1237    1219    1220
CTETRA     22595       1    3050    1829    1884    4189
CTETRA     22596       1    2360    2546    4178    1159
CTETRA     22597       1    2449    3730     998    3725
CTETRA     22598       1    3719    1969    3722    2448
CTETRA     22599       1    3092    2289    1986    5011
CTETRA     22600       1    1273     320    1276    1260
CTETRA     22601       1    1251    1597    1598     451
CTETRA     22602       1    4877    1597    1598    1251
CTETRA     22603       1    2468    2636    2289    5134
CTETRA     22604       1    2289    1986    5011    5032
CTETRA     22605       1    1117    2440    4166    2452
CTETRA     22606       1    4463    4464    4884    2847
CTETRA     22607       1    3089    4601    3090    4585
CTETRA     22608       1    3055    3089    4585    4463
CTETRA     22609       1    3038    3090    3089    4601
CTETRA     22610       1    2710    2440    4126    4125
CTETRA     22611       1    2371    3078    2847    4464
CTETRA     22612       1    1950    1951    1952    3663
CTETRA     22613       1    3078    2847    4463    3055
CTETRA     22614       1    1917    2484    1979    2483
CTETRA     22615       1    1200    3055    2725    2924
CTETRA     22616       1     675    1184    2217     581
CTETRA     22617       1     807     819    1161    1160
CTETRA     22618       1    2981    5035    2980    5014
CTETRA     22619       1     338    5035    2754    5036
CTETRA     22620       1    2689    2399    3883    2687
CTETRA     22621       1    3031    3819    3096    2692
CTETRA     22622       1     723    2689    3096    3863
CTETRA     22623       1    3096    3883    2399    3864
CTETRA     22624       1     143    1957    2486    2487
CTETRA     22625       1    2505    2633    4680    4472
CTETRA     22626       1    3048    2202    4472    2633
CTETRA     22627       1    4893    4892    2202    2814
CTETRA     22628       1    1151    1153    4885    5018
CTETRA     22629       1    2696     810     811    2699
CTETRA     22630       1    1151    2847    2371     806
CTETRA     22631       1    2488    1951    3857    3858
CTETRA     22632       1    2980    2978    5014    4882
CTETRA     22633       1     246     447     233     241
CTETRA     22634       1     452     139    3019    1197
CTETRA     22635       1    3070    2978    4882    2924
CTETRA     22636       1    1154    2847    3078    3055
CTETRA     22637       1     726     723    3031    2880
CTETRA     22638       1    1976     461    1980    1977
CTETRA     22639       1    1344    2886    3084    2927
CTETRA     22640       1     723    2689    3863    3882
CTETRA     22641       1    1954    2977    2978    3064
CTETRA     22642       1     726    2880    3031    2487
CTETRA     22643       1    1957    3031    2882    2487
CTETRA     22644       1    3658    1282    1280    1279
CTETRA     22645       1    2256    2257    1011     991
CTETRA     22646       1    1280    2462    5725    1281
CTETRA     22647       1     398     403     400    2760
CTETRA     22648       1    1013     441    1749    2462
CTETRA     22649       1    1013    1280    2462    2921
CTETRA     22650       1    1280    1281    5725    5726
CTETRA     22651       1    2422     845    1277    2554
CTETRA     22652       1    1392     182     565     184
CTETRA     22653       1    2256    2815    2751    4929
CTETRA     22654       1    2417    2450    5332    5321
CTETRA     22655       1    1371    2032    1503    4823
CTETRA     22656       1    2814    4951    4950    2815
CTETRA     22657       1    4952    2814    4951    4950
CTETRA     22658       1    1881    2814    2815    4951
CTETRA     22659       1    1282    1280    2743    3659
CTETRA     22660       1    1753    2827    2203    1754
CTETRA     22661       1    1878     761    2815     592
CTETRA     22662       1    2329     443    1313    2632
CTETRA     22663       1    2902    2743      29      30
CTETRA     22664       1    1879    1748     437    2136
CTETRA     22665       1     732    2689    2399    3096
CTETRA     22666       1     806    2372    3078    2371
CTETRA     22667       1    2032    4824    1503    4823
CTETRA     22668       1    3078    3055    4463    3089
CTETRA     22669       1    2698    2699    3861    3817
CTETRA     22670       1    3070    3055    4462    4883
CTETRA     22671       1    3055    3089    2725    4585
CTETRA     22672       1    2355    3002    2699    2488
CTETRA     22673       1    1955    3070    2924    2978
CTETRA     22674       1    1943    3002    2488    1951
CTETRA     22675       1     820     810     811    2696
CTETRA     22676       1     807     819    1160    1270
CTETRA     22677       1    2203    2827     849    1891
CTETRA     22678       1    2880    2487    3855    3818
CTETRA     22679       1    2278    5176    5175    5184
CTETRA     22680       1     410    2714    5186    5184
CTETRA     22681       1    2373    5180    2712    5201
CTETRA     22682       1    5176    2713    2278     412
CTETRA     22683       1    2278    5183    5185    2703
CTETRA     22684       1    5184    5183    5185    2278
CTETRA     22685       1     410     412    2713    5176
CTETRA     22686       1     409    2714     410    2713
CTETRA     22687       1    2713    5183    2703    2552
CTETRA     22688       1    1434    2129    1456    1451
CTETRA     22689       1    2146    2309     409     541
CTETRA     22690       1    2225    2664     380    3030
CTETRA     22691       1     765    2702    1225     762
CTETRA     22692       1    1457    1453    2825    2857
CTETRA     22693       1      93    2684    1554    2791
CTETRA     22694       1    1583    1719    1582    1580
CTETRA     22695       1    1700    1703    2523    1702
CTETRA     22696       1    3985    3919    1451    2129
CTETRA     22697       1    1456    2129    3985    1451
CTETRA     22698       1    2278    2703    1226    2713
CTETRA     22699       1    1435    2713     412    2278
CTETRA     22700       1     593    2815    2003     592
CTETRA     22701       1    2003    2815    4891     592
CTETRA     22702       1    1996    2003    2202    2002
CTETRA     22703       1     565    1282    1393    2952
CTETRA     22704       1    1011     992    2752     439
CTETRA     22705       1    2202    2003    4471    2201
CTETRA     22706       1    2003    2815    4950    4891
CTETRA     22707       1    1369    2522    1372    1871
CTETRA     22708       1     983     389    3075    1892
CTETRA     22709       1    3075    4991    1892     389
CTETRA     22710       1    3098    3075    4991    2515
CTETRA     22711       1     983    3075    2826    1892
CTETRA     22712       1    4992    4991    4970    2515
CTETRA     22713       1    2675    3090    4619    4602
CTETRA     22714       1    1325    4620    4603    4602
CTETRA     22715       1    4620    2679    2675    3035
CTETRA     22716       1    1326    4620    4603    1325
CTETRA     22717       1     463    2484    3060    1979
CTETRA     22718       1     103    1345    3635     105
CTETRA     22719       1    3037    3038    3089    4600
CTETRA     22720       1    1971    1722     738    3038
CTETRA     22721       1     463    2484    2627    3060
CTETRA     22722       1    3068    3002    3840    2700
CTETRA     22723       1    1160    2288    2151    1270
CTETRA     22724       1    3763    2627    3471    2484
CTETRA     22725       1    1950    2627     590    3764
CTETRA     22726       1    2288    2631    3808    2629
CTETRA     22727       1    3088    4466    4635    4465
CTETRA     22728       1    2806    2730     959    4658
CTETRA     22729       1     811    3002    2700    2699
CTETRA     22730       1     684    1151     743     848
CTETRA     22731       1    1151     743     848    5038
CTETRA     22732       1     486     504     833    1664
CTETRA     22733       1     170     390     388     983
CTETRA     22734       1    1957    2487     726    3031
CTETRA     22735       1    5017    1149     503    1151
CTETRA     22736       1     768    2999    2803    3613
CTETRA     22737       1    2446      51    2181     555
CTETRA     22738       1    1859    1294     694     511
CTETRA     22739       1      82    1964    2917    3054
CTETRA     22740       1     621    3413    1468    2305
CTETRA     22741       1     622     621    3413    1468
CTETRA     22742       1    2002    2202    2505    2201
CTETRA     22743       1    1998    2305    1393    2744
CTETRA     22744       1    1845    1469    1592    1202
CTETRA     22745       1    1997    2202    2633    2505
CTETRA     22746       1     201    1715     623     624
CTETRA     22747       1    1478    1469    2593    3413
CTETRA     22748       1    1393    2744    2305    3641
CTETRA     22749       1    2143    2696    3860    3880
CTETRA     22750       1     666    5857    3618    3566
CTETRA     22751       1    2143    1288    3906    3879
CTETRA     22752       1     820    2143    2696    3860
CTETRA     22753       1    2143    3860     820    3879
CTETRA     22754       1    2143    3879     820    2520
CTETRA     22755       1    1278    2624     440    2623
CTETRA     22756       1     387    2903    2295    2914
CTETRA     22757       1    1936    2442    2346    3647
CTETRA     22758       1     589     769     591     588
CTETRA     22759       1    1974    2648    2796    2541
CTETRA     22760       1     595    3609    2150    1964
CTETRA     22761       1     121    2649    2671    1074
CTETRA     22762       1     123    2685    2541    1004
CTETRA     22763       1    3625    2418    3626    2442
CTETRA     22764       1    3644    3647    1005    1948
CTETRA     22765       1    2418    2442    3647    3626
CTETRA     22766       1    1163    1640    1207    1936
CTETRA     22767       1    2803     768    3615    1727
CTETRA     22768       1    2730     959    4658    4690
CTETRA     22769       1    2541     618     619    2792
CTETRA     22770       1    2806    2679    4658     959
CTETRA     22771       1    2649    2541     120    2685
CTETRA     22772       1    2901    2805    2806    4657
CTETRA     22773       1    2685    2901    4656    4688
CTETRA     22774       1    2730     959    4690     176
CTETRA     22775       1    2679     959    3035    4639
CTETRA     22776       1    2805    2806    4689    2730
CTETRA     22777       1    1640    1010    2418    1936
CTETRA     22778       1    1190    4690    2730    4755
CTETRA     22779       1     779    2414    2999     768
CTETRA     22780       1    2282    2283    5226    2807
CTETRA     22781       1     941    5721    2760    2237
CTETRA     22782       1    1479     439     406    2752
CTETRA     22783       1    2852    1479     406    2753
CTETRA     22784       1    2471    5064    5049    5048
CTETRA     22785       1    2162    4309    2635    2963
CTETRA     22786       1    1994    3439    3457    3459
CTETRA     22787       1    2932    2760    5721    3437
CTETRA     22788       1    1907    1811    2653    2869
CTETRA     22789       1    2161    2923    2855    4974
CTETRA     22790       1    2161    2159    4994    4972
CTETRA     22791       1    2490    2209    1908    2207
CTETRA     22792       1     433    1526    1528    1527
CTETRA     22793       1    2760     398     408    2461
CTETRA     22794       1    2852    2161    2855    4978
CTETRA     22795       1    1765     396     439     406
CTETRA     22796       1      24    1846    1981     365
CTETRA     22797       1     166     397     402    2191
CTETRA     22798       1    3029    4568    2891    1348
CTETRA     22799       1    4567    3029    4541    2172
CTETRA     22800       1    3029    2172    4567    1353
CTETRA     22801       1    3029    2891    4568    4570
CTETRA     22802       1      86      83    3751      85
CTETRA     22803       1    2758    1629    1630    1103
CTETRA     22804       1    1632    2400    3738    3685
CTETRA     22805       1     650    5220     651    5283
CTETRA     22806       1    3029    2172    3024    4541
CTETRA     22807       1    2988    3029    4570    2891
CTETRA     22808       1    1631    1632    2400    1470
CTETRA     22809       1    2400    2326    3687      83
CTETRA     22810       1    1470    3738    2400    3735
CTETRA     22811       1      84    2400      86      83
CTETRA     22812       1    2847    4463    3055    4883
CTETRA     22813       1    2847    3055    3070    4883
CTETRA     22814       1     480     481     334    1275
CTETRA     22815       1    2696     810     725     820
CTETRA     22816       1    2980    3070    4882    5015
CTETRA     22817       1    3070    3055    2924    4462
CTETRA     22818       1    1212     122     114    1544
CTETRA     22819       1     723    3863    3031    3818
CTETRA     22820       1    2696    2700    3860    3816
CTETRA     22821       1     729     723    3096    3031
CTETRA     22822       1    2355     727     810     812
CTETRA     22823       1    2880    2488    3855    2487
CTETRA     22824       1    2880    2488    3817    3855
CTETRA     22825       1    2279    1459    2280    1651
CTETRA     22826       1    1648    2276    3841    2715
CTETRA     22827       1    2284     103    1345    2839
CTETRA     22828       1    2716     802    2356    1596
CTETRA     22829       1    1861    1056    2864    2249
CTETRA     22830       1    2907    2704    3843    2899
CTETRA     22831       1    2908    2907    3822    3823
CTETRA     22832       1    2740    2555    5004    5003
CTETRA     22833       1     719    2546    1159    4178
CTETRA     22834       1     714    1669      94    1076
CTETRA     22835       1     912     915    1158    1895
CTETRA     22836       1     720    2360    1159    2546
CTETRA     22837       1    2617    1123    4092    4093
CTETRA     22838       1     844    2740    5003    2555
CTETRA     22839       1    1457    1458    3003    1823
CTETRA     22840       1    2881    5004    2553    5005
CTETRA     22841       1     844     845    2555    5023
CTETRA     22842       1     810     726    2699    2698
CTETRA     22843       1    1749    2462     441    1093
CTETRA     22844       1     811    1161    3068    3002
CTETRA     22845       1     667     104    3631    3632
CTETRA     22846       1    2689    2687    3883    3909
CTETRA     22847       1    2887    2687    2689    3909
CTETRA     22848       1    2887    3995    3968    3967
CTETRA     22849       1    2689    3883    3096    3863
CTETRA     22850       1    2689    3096    3883    2399
CTETRA     22851       1    2371    1151    5017    2847
CTETRA     22852       1    2847    4464    4884    2371
CTETRA     22853       1    4885    1151    5017    2371
CTETRA     22854       1     421     423     422    2132
CTETRA     22855       1    3078    1198     806    2847
CTETRA     22856       1    2847    1151    1150     806
CTETRA     22857       1    4885    2478    2372    4465
CTETRA     22858       1    1242    1241    2405    2321
CTETRA     22859       1    2918    2415    3085    5207
CTETRA     22860       1    2371     806    2372    1153
CTETRA     22861       1     819    2700    2885     820
CTETRA     22862       1     778      52    1919     455
CTETRA     22863       1    2700     820    3815    2885
CTETRA     22864       1    3857    2629    1951    3002
CTETRA     22865       1    3002    2699    3816    2700
CTETRA     22866       1    2629    3840    3002    3857
CTETRA     22867       1    3002    2488    1951    3857
CTETRA     22868       1    2163    2468    2636    2289
CTETRA     22869       1    1184     579     583     581
CTETRA     22870       1     807     806    1155    1154
CTETRA     22871       1     802    1596    2716    1251
CTETRA     22872       1    4877    2707    4456    1598
CTETRA     22873       1    1247    2967     576    1250
CTETRA     22874       1    3062    1381    3912    3885
CTETRA     22875       1    3062    3063    3885    3866
CTETRA     22876       1    2952    1392    1998    1393
CTETRA     22877       1    1393    3354    2305    2952
CTETRA     22878       1    1393    3354    2952    3658
CTETRA     22879       1    1393    1282    3655    3658
CTETRA     22880       1      29      30      28    2902
CTETRA     22881       1      97     793    2870    2723
CTETRA     22882       1     377    1173     376     380
CTETRA     22883       1    2061    3873    2438    3829
CTETRA     22884       1    1225    3072    2702    2281
CTETRA     22885       1    2768    2368    1649    3707
CTETRA     22886       1    1434    1457    1581    1458
CTETRA     22887       1    2552    2703     545    2553
CTETRA     22888       1    1587    1459    1588    1651
CTETRA     22889       1    1457    2948    1458     890
CTETRA     22890       1    1226    2702    2553    2703
CTETRA     22891       1    2881    4872    2740    5004
CTETRA     22892       1    2740    2553    5004    2555
CTETRA     22893       1    2553    5024    2555    2552
CTETRA     22894       1    2281    2278    5161    5185
CTETRA     22895       1     349     348    1352    1346
CTETRA     22896       1    1743    1078    1086    1763
CTETRA     22897       1    1762    2959    2285    2946
CTETRA     22898       1      22    3559    2285    2013
CTETRA     22899       1    2285    2822    2674    3551
CTETRA     22900       1    3551    3490    2285    2946
CTETRA     22901       1    1315    1316    2183    1871
CTETRA     22902       1     994     415     413     417
CTETRA     22903       1     753    2286    2013    2458
CTETRA     22904       1    3004    3559    2285      22
CTETRA     22905       1    2919    2396    5353    5352
CTETRA     22906       1    2918    5345    2415    5207
CTETRA     22907       1    5913    5618    5907    1940
CTETRA     22908       1    1146    5730    1145    5913
CTETRA     22909       1    1148    1473    5730    5729
CTETRA     22910       1    1007    1731    1998    1981
CTETRA     22911       1     954    4954    1935    2474
CTETRA     22912       1    2923    1003    1265    1850
CTETRA     22913       1    2305    5728    3419    1478
CTETRA     22914       1    1912     518      67    1602
CTETRA     22915       1    1413    4959    1939    2994
CTETRA     22916       1    3004    3490    2285    3559
CTETRA     22917       1    2286    2982    3491    3479
CTETRA     22918       1    3490    2285    2946    3004
CTETRA     22919       1    2514    3584    3541    3589
CTETRA     22920       1    2948    2998    2857    1457
CTETRA     22921       1    2527    1347     472    2120
CTETRA     22922       1     471    2118    4647     473
CTETRA     22923       1    3004    3490    3053    3508
CTETRA     22924       1    3004    3053    1761    3508
CTETRA     22925       1    2118    2221    4648    3010
CTETRA     22926       1     350    2750    1361    1448
CTETRA     22927       1    2101     231    1896    1990
CTETRA     22928       1      20    3004      22    2982
CTETRA     22929       1    2118    4667    3010    4648
CTETRA     22930       1    2118     473    2066    4666
CTETRA     22931       1    4629    4647    1378    2221
CTETRA     22932       1    5206    2266    2918    3591
CTETRA     22933       1    2248    2247    5258    5260
CTETRA     22934       1     628     864     631     630
CTETRA     22935       1    1674    5257    1675    5244
CTETRA     22936       1    1677    1671    1860    2249
CTETRA     22937       1     693     640    1189     864
CTETRA     22938       1    1678    4775    4758    4757
CTETRA     22939       1    1953    1540    2475     566
CTETRA     22940       1     823     511    2444    2640
CTETRA     22941       1    2795    3620    2839    1729
CTETRA     22942       1    2298    2299    1725    3581
CTETRA     22943       1     863    1500    1112    1189
CTETRA     22944       1    1285    2470    3682    3746
CTETRA     22945       1    1299    1284    1338    1301
CTETRA     22946       1    4233    1530    1529    1970
CTETRA     22947       1    2470    1107    3682    3747
CTETRA     22948       1    1285    2470    2453    3682
CTETRA     22949       1    1335    3766    1336    3767
CTETRA     22950       1    1758    1283    2454    2448
CTETRA     22951       1    2454    1099    2878    3729
CTETRA     22952       1    2847    1154    1199    3055
CTETRA     22953       1     145     139    2726    2724
CTETRA     22954       1     680    2203     686     986
CTETRA     22955       1    1151    1150     503    2847
CTETRA     22956       1    2847    2371    4884    5017
CTETRA     22957       1    5016    5017    1149     503
CTETRA     22958       1    4883    4884    5016     503
CTETRA     22959       1     139    2726    2966    2354
CTETRA     22960       1    3002    3857    2699    2488
CTETRA     22961       1    3002    3816    2699    3857
CTETRA     22962       1    2698    2880    3817    3862
CTETRA     22963       1    2696    2699    3816    3861
CTETRA     22964       1     143     147    1977    2486
CTETRA     22965       1    1442    2918    2266    1389
CTETRA     22966       1    1200    3070    3055    2924
CTETRA     22967       1     503    1199     339    2980
CTETRA     22968       1    1132    2011    2198     544
CTETRA     22969       1     729     732    2692    3096
CTETRA     22970       1    2698    3862     723    2880
CTETRA     22971       1    2698    2699    2696    3861
CTETRA     22972       1    2697    2696    2143    3880
CTETRA     22973       1    1289     723    1290    2689
CTETRA     22974       1    1955    2980    2978    2977
CTETRA     22975       1     737    3035    2679     959
CTETRA     22976       1     729     732    3096     723
CTETRA     22977       1     739     738     456    1971
CTETRA     22978       1    2676    3038    2672    4637
CTETRA     22979       1    2991    5206    3591    5341
CTETRA     22980       1    3057    3091    2972    1179
CTETRA     22981       1    1950    3470    2631    3662
CTETRA     22982       1     691     959     177    3035
CTETRA     22983       1     691     177     959     176
CTETRA     22984       1    2679    2675     737    2676
CTETRA     22985       1    1971    2675    3090    3038
CTETRA     22986       1    2981     338    5035    2754
CTETRA     22987       1    1199    3070     503    2847
CTETRA     22988       1     338    2980    5035    5015
CTETRA     22989       1    2623     340    2625    5080
CTETRA     22990       1     684    1152     743    1151
CTETRA     22991       1     503    2980    5015    3070
CTETRA     22992       1    1199     503    3070    2980
CTETRA     22993       1    1290    2698    3882     723
CTETRA     22994       1    2698    2699    3817    2880
CTETRA     22995       1     723    2880    3862    3818
CTETRA     22996       1     723    2880    3818    3031
CTETRA     22997       1     751     749     750    1420
CTETRA     22998       1     852    2337    2178     855
CTETRA     22999       1     471     465     470     472
CTETRA     23000       1    2013    3477    2016    3478
CTETRA     23001       1    2286    2458    3479    3478
CTETRA     23002       1     216    2501     213    4489
CTETRA     23003       1    1218    4488     213    4489
CTETRA     23004       1    2991    2992    5352    5339
CTETRA     23005       1     213    1346    4593    4487
CTETRA     23006       1     213    1346    1350    4593
CTETRA     23007       1     215     213     216    2501
CTETRA     23008       1    1103    3748    2851    2701
CTETRA     23009       1    2851    2701    3748    3792
CTETRA     23010       1    1410    5270    2362    1411
CTETRA     23011       1    1235    2501     216    2504
CTETRA     23012       1    1757    1333    1106    2470
CTETRA     23013       1    2328    2701    2851    2786
CTETRA     23014       1      49     465    1347      50
CTETRA     23015       1    1101    3748    1107    1103
CTETRA     23016       1    2851    2332    3781    3782
CTETRA     23017       1    1988     244     243    3062
CTETRA     23018       1    2374    4878    4877    5010
CTETRA     23019       1     951    2477    2242     796
CTETRA     23020       1    2625    2754    2755    5096
CTETRA     23021       1    3086    1291    3969    3972
CTETRA     23022       1    2886    1568     272    1745
CTETRA     23023       1     729    1956     394    2692
CTETRA     23024       1    3086    3084    3972    3974
CTETRA     23025       1     730    2689    2687    2399
CTETRA     23026       1    2886    2927    1745    3966
CTETRA     23027       1    1072    2558    2557    2551
CTETRA     23028       1    1168    3011    1169    5121
CTETRA     23029       1    3992     905     906    3964
CTETRA     23030       1    3011    3015    5124    5123
CTETRA     23031       1    2288    3807    3068    3840
CTETRA     23032       1    1721    3037    3078    2372
CTETRA     23033       1    1751    1879    2516    2136
CTETRA     23034       1    3856    3857    2629    1951
CTETRA     23035       1    1944    1950    2629    1951
CTETRA     23036       1    3002    2700    3816    3840
CTETRA     23037       1    2371    3078    4464    2372
CTETRA     23038       1    4465    3037    3088    2372
CTETRA     23039       1    3037    3078    4600    3089
CTETRA     23040       1    1004    4746    2779    2640
CTETRA     23041       1    3078    3089    4463    4600
CTETRA     23042       1    1918    2188    3035     177
CTETRA     23043       1    2099    1490    2269    1373
CTETRA     23044       1    2196    1920    2199    5535
CTETRA     23045       1    2197    2196    2199    2955
CTETRA     23046       1    2431    5907    2140    1940
CTETRA     23047       1    2199    5535    1920    5536
CTETRA     23048       1    2197    2618    5531    5532
CTETRA     23049       1     596    1087    5547    5548
CTETRA     23050       1    1622    1786    5583    1356
CTETRA     23051       1    5560    1920    5536    1786
CTETRA     23052       1    1781    5537    1786    5538
CTETRA     23053       1    1786    1785    5536    5537
CTETRA     23054       1    1776     550    1467    1782
CTETRA     23055       1    2558    4098    2379    4114
CTETRA     23056       1    2141    2096    1922    2197
CTETRA     23057       1    1786    5584    1356    5585
CTETRA     23058       1    1925    1356    1930    1931
CTETRA     23059       1    2558    4517    2379    4098
CTETRA     23060       1    2558    5792    4517    4098
CTETRA     23061       1    1931    1926    5563    5564
CTETRA     23062       1    1794    2588    1795    5599
CTETRA     23063       1    2238    5723    1526    5611
CTETRA     23064       1    2862    1848     598    1089
CTETRA     23065       1    1848    5905    5906    5573
CTETRA     23066       1    4961    4962    4947    1881
CTETRA     23067       1    2256    1881    2815    4951
CTETRA     23068       1     641     654     648     647
CTETRA     23069       1     962    1881    4961    4953
CTETRA     23070       1    4952    1881    4949    4948
CTETRA     23071       1    1881    2814    4951    4952
CTETRA     23072       1    2362     624    5264    5263
CTETRA     23073       1    4962    1881    2259    2258
CTETRA     23074       1    2952    1949     184    1760
CTETRA     23075       1    2814    1881    2915    2474
CTETRA     23076       1    1556    5134    2468    5158
CTETRA     23077       1    2163    2636     839    2289
CTETRA     23078       1    1380    3913    2939    3083
CTETRA     23079       1    2939    2217    3979    3978
CTETRA     23080       1     242     244    3868     243
CTETRA     23081       1    5010    1601    2374    4878
CTETRA     23082       1    3887    3083    3886     244
CTETRA     23083       1    2276     242    3824    2899
CTETRA     23084       1    2063     793    2723    3872
CTETRA     23085       1    1181    1168    5102    5098
CTETRA     23086       1    1290    2887    2689    3909
CTETRA     23087       1    1330    2216    2291    1986
CTETRA     23088       1     337    2981     338    2980
CTETRA     23089       1    3907    1287    3906    2143
CTETRA     23090       1    1955    2978    2980    3070
CTETRA     23091       1    1290     723    3882    2689
CTETRA     23092       1    5278    1411     260    5265
CTETRA     23093       1    2805    2920    2730    4689
CTETRA     23094       1     664     722     817    1934
CTETRA     23095       1    1294    2228    4774    4768
CTETRA     23096       1    2228    2444    4774    4772
CTETRA     23097       1     695    1190     176    2730
CTETRA     23098       1    1049    2776    1524    2865
CTETRA     23099       1     618     785     566     620
CTETRA     23100       1    2444    1192    2228    1294
CTETRA     23101       1      41    1274    2138     733
CTETRA     23102       1    3072    2702    2281    5026
CTETRA     23103       1    1072    2557     309    2551
CTETRA     23104       1    3013    3034    2345    4504
CTETRA     23105       1      72    2370      70      71
CTETRA     23106       1    1645    1644    2064    2638
CTETRA     23107       1      98    2061     276    2063
CTETRA     23108       1    2702    5025    2553    2703
CTETRA     23109       1    3033    2910    4504    3034
CTETRA     23110       1    3033    2167    3034    4533
CTETRA     23111       1    3034    2345    4529    2357
CTETRA     23112       1     965    1247     576     578
CTETRA     23113       1     549    1649    2768    2368
CTETRA     23114       1    1649    3706    1647    3672
CTETRA     23115       1    3027    3869    3099    3870
CTETRA     23116       1    1647    1642    1644    1646
CTETRA     23117       1    2990    3677    3833    3835
CTETRA     23118       1    1213    2444    1190    2920
CTETRA     23119       1    2885    1270    2288    3068
CTETRA     23120       1     693     864     631     640
CTETRA     23121       1    2901    2676    4637    4657
CTETRA     23122       1    3615     768    2916    1727
CTETRA     23123       1    2979    3092    4879    4458
CTETRA     23124       1    2979    3092    3093    4879
CTETRA     23125       1    2986    2987    4547    4546
CTETRA     23126       1    2986    4539    1701    4546
CTETRA     23127       1    2986    2893    4539    2989
CTETRA     23128       1    2986    4547    3019    4548
CTETRA     23129       1    2564    2502    2218    4631
CTETRA     23130       1    2608    2788    2563    4615
CTETRA     23131       1    2788    2594    4614    4598
CTETRA     23132       1    1411     260    5265    2775
CTETRA     23133       1    1411    2775    5265    5264
CTETRA     23134       1    4630    2502    4631    2218
CTETRA     23135       1     367     365     368    1846
CTETRA     23136       1    2218    2221    4648    4630
CTETRA     23137       1    4648    2218    2219    2221
CTETRA     23138       1    1411     260     261     262
CTETRA     23139       1    1546    1464    1252    1545
CTETRA     23140       1    4612    4630    1378    2502
CTETRA     23141       1    2757    1254    1545    2358
CTETRA     23142       1    1253    2785    2906    4235
CTETRA     23143       1    2429    2871     976    1230
CTETRA     23144       1    1879    1011     761    2751
CTETRA     23145       1    1252    2906    2785    2600
CTETRA     23146       1    2604    2607     977    2609
CTETRA     23147       1    2938    1081    1763    2940
CTETRA     23148       1    2429    1229    2871    1230
CTETRA     23149       1    2124    3481    3754    3080
CTETRA     23150       1    2982    3004      22    3491
CTETRA     23151       1    3491    3004      22    3559
CTETRA     23152       1    1594    1253    3527    1545
CTETRA     23153       1    3479    2982    2273    2286
CTETRA     23154       1    1879    2515    1011    2751
CTETRA     23155       1    2013    2286      22    3559
CTETRA     23156       1    2286    2013    3478    3559
CTETRA     23157       1    2751    4929    2815     761
CTETRA     23158       1    2751    2515    4984    4985
CTETRA     23159       1    1878    2751    2815     761
CTETRA     23160       1    2751     761    4986    4929
CTETRA     23161       1    2751    2516    4986     761
CTETRA     23162       1    1964     115     117     771
CTETRA     23163       1    1722    2672    2676    3038
CTETRA     23164       1     558    1163     734      37
CTETRA     23165       1    1964    2917    3608    1965
CTETRA     23166       1    3470    3764    1950     590
CTETRA     23167       1     337    2754     334     340
CTETRA     23168       1     503    4884    5016    5017
CTETRA     23169       1     503    2847    5017    1151
CTETRA     23170       1     503    4883    2847    3070
CTETRA     23171       1     724     729     727     726
CTETRA     23172       1    1254    3514    2682    3513
CTETRA     23173       1    5015     503    1149     338
CTETRA     23174       1     725     820    2143    2696
CTETRA     23175       1     503    3070    5015    4883
CTETRA     23176       1    3861    3862    3881    2697
CTETRA     23177       1    2698     723    3862    3882
CTETRA     23178       1    4620    2675    4602    2473
CTETRA     23179       1    2676    4619    3038    4637
CTETRA     23180       1    2679    3035    4620    4639
CTETRA     23181       1    2679     959    4639    4658
CTETRA     23182       1     728     727     391    1954
CTETRA     23183       1    2623    1152    5080    5089
CTETRA     23184       1    1545    3525    1254    3528
CTETRA     23185       1     907     905    1562    2876
CTETRA     23186       1    1341    1168    3011    1169
CTETRA     23187       1    1289    1291    2887    1290
CTETRA     23188       1    1569    1745    2886    2927
CTETRA     23189       1    2274    2122    3775    3788
CTETRA     23190       1    2274    3793    1107    3747
CTETRA     23191       1    2272    2273    3774    3775
CTETRA     23192       1    2272    2273    3775    2874
CTETRA     23193       1    2874    2122    2274    2121
CTETRA     23194       1    2272    2458    3782    3773
CTETRA     23195       1    2272    2273    3773    3774
CTETRA     23196       1    4935    2612    4943    4936
CTETRA     23197       1    2923    2161    4995    4974
CTETRA     23198       1     698    2425    1322    2382
CTETRA     23199       1     334    2625    2754    2755
CTETRA     23200       1    1289    1290    2887    2689
CTETRA     23201       1    2625    3011    5123    2755
CTETRA     23202       1     340    1149     338    5036
CTETRA     23203       1     338    5015    5036    1149
CTETRA     23204       1    2489     337    2980    2981
CTETRA     23205       1    1254    2682    3515    2424
CTETRA     23206       1    2488    2355     726    2699
CTETRA     23207       1    1155    3089    3037    3038
CTETRA     23208       1    1944    2631    1160    2629
CTETRA     23209       1    2631    2629    1950    3856
CTETRA     23210       1    2288    3068    3807    2885
CTETRA     23211       1    2631    3856    1950    3662
CTETRA     23212       1    2372    3078    4464    3037
CTETRA     23213       1     979     230    2424    2757
CTETRA     23214       1    2672    3037    4618    3038
CTETRA     23215       1    1155    3078    3037    3089
CTETRA     23216       1    3037    2372    4465    4464
CTETRA     23217       1    2288    2629    3808    3840
CTETRA     23218       1    2647    1696    2993    2650
CTETRA     23219       1    1074    2372    2650    4466
CTETRA     23220       1     693    1190     174     176
CTETRA     23221       1    4748    2920    4747    2900
CTETRA     23222       1    1997    1996    2002    1731
CTETRA     23223       1    1944    3060     463    2627
CTETRA     23224       1     509     506    2916    1727
CTETRA     23225       1    2805    2920    4689    4748
CTETRA     23226       1    1594    1253    4250    3527
CTETRA     23227       1    2920    4755    2730    4689
CTETRA     23228       1    1190    4772    2444    1192
CTETRA     23229       1    2538    1728    3598    3599
CTETRA     23230       1      51    2419    2446    2323
CTETRA     23231       1    1727    1728     509     506
CTETRA     23232       1    1728    3616    1729    3597
CTETRA     23233       1    2906    2600    4237    4236
CTETRA     23234       1    3615    1727    1328    2803
CTETRA     23235       1     213    4594     214     216
CTETRA     23236       1    4593     213    4594     214
CTETRA     23237       1     213    1350     215     214
CTETRA     23238       1    1378    4612    4595    4611
CTETRA     23239       1    4488     213    4489    4594
CTETRA     23240       1     213    4489    4594     216
CTETRA     23241       1     216    4595    2504    4489
CTETRA     23242       1    4611    1378     216    4595
CTETRA     23243       1    2785    1230    4277    4279
CTETRA     23244       1    2273    2272    2121    2874
CTETRA     23245       1    3746    1285    2470    2122
CTETRA     23246       1    1080    1369    1870    1700
CTETRA     23247       1    1104    2274    2272    2851
CTETRA     23248       1     981    1322    3053    2382
CTETRA     23249       1     996    1230    2429     976
CTETRA     23250       1    2274    2874    2272    3775
CTETRA     23251       1    2682     979    1254    1255
CTETRA     23252       1    2470    2274    1107    3747
CTETRA     23253       1    2274    3775    2272    3783
CTETRA     23254       1    2115    4381    1710    4379
CTETRA     23255       1    2739    2644    3699    2768
CTETRA     23256       1    2911    4872    2881    4452
CTETRA     23257       1    1895    4515    4510    4520
CTETRA     23258       1    2530    2352    4081    2353
CTETRA     23259       1      94     714     277     713
CTETRA     23260       1    1256    4167    2804    4868
CTETRA     23261       1     764    2910    2911    4452
CTETRA     23262       1     300     303     306     310
CTETRA     23263       1     911    4534     384    4535
CTETRA     23264       1    3072    2702    5026    5006
CTETRA     23265       1    2107    1547    3516    2424
CTETRA     23266       1    1588    2279    2281    1651
CTETRA     23267       1    2107    3516    1547    3529
CTETRA     23268       1    2706    5030    5029    3039
CTETRA     23269       1    2374    2468    1601    5030
CTETRA     23270       1    3049    2064    3826    2060
CTETRA     23271       1    2107    3494    2764    2425
CTETRA     23272       1    3083    2939    1184    1172
CTETRA     23273       1    1989    2468    2289    1601
CTETRA     23274       1     241    3028    3027     242
CTETRA     23275       1     583    3914    2939    3980
CTETRA     23276       1    3099    2983    3890    3889
CTETRA     23277       1    1773    1799    2018    1320
CTETRA     23278       1    1202    1845    1469      19
CTETRA     23279       1    1144    1474      12      25
CTETRA     23280       1    1935    2945     960    2474
CTETRA     23281       1     962    2259     867    3081
CTETRA     23282       1     954    1939    4958    3081
CTETRA     23283       1    3081     954    4964    4958
CTETRA     23284       1     164    1888    2641    1567
CTETRA     23285       1     885    1935    1937    2945
CTETRA     23286       1    1404    4838    1938    4837
CTETRA     23287       1    1935    2474    4957    4895
CTETRA     23288       1     330    1939    1413    1405
CTETRA     23289       1     521    2133    1797     586
CTETRA     23290       1     529    2364     866     296
CTETRA     23291       1    2327    3496    2107    3529
CTETRA     23292       1    2733    1470    3022    3740
CTETRA     23293       1    1632    3685    2758      86
CTETRA     23294       1     575    3029    2172    3024
CTETRA     23295       1     575    3024    2988    3029
CTETRA     23296       1     799     802     804     800
CTETRA     23297       1     772     754    1816    3051
CTETRA     23298       1    2839    1345    2538    3624
CTETRA     23299       1    2444    2640    4753    2920
CTETRA     23300       1    1753    3017     848     849
CTETRA     23301       1    3510    2107    3494    2764
CTETRA     23302       1    2981     338    2980    5035
CTETRA     23303       1     340    1149    5036    5037
CTETRA     23304       1    1291    1290    3970    2887
CTETRA     23305       1     337    2981    2754     338
CTETRA     23306       1    1570    2981    2756    2754
CTETRA     23307       1    2981    5014    2980    2977
CTETRA     23308       1    1290    2689    3882    3909
CTETRA     23309       1    2925    2280    5152    3040
CTETRA     23310       1     236    1185     446     247
CTETRA     23311       1    3978    1380    3913    2939
CTETRA     23312       1     793    3891    2664    2870
CTETRA     23313       1    3021    2373    5194    5181
CTETRA     23314       1    1023    2130    2854    2128
CTETRA     23315       1    1737    2765    2107    3510
CTETRA     23316       1    1380    2217    3978    2780
CTETRA     23317       1    2279    1651    2280    2281
CTETRA     23318       1    3087    1659    1657    3213
CTETRA     23319       1    2281    1651    5161    2278
CTETRA     23320       1    2646     188    1659    1661
CTETRA     23321       1    1596    4878    4877    2374
CTETRA     23322       1    3033    4504    2910    4522
CTETRA     23323       1    3013    4504    2345    4505
CTETRA     23324       1    1736    2106    1896    2583
CTETRA     23325       1    1743    3509    1761    2764
CTETRA     23326       1     277    2065    2252     301
CTETRA     23327       1    2174    1009    1143    1166
CTETRA     23328       1    2768    2368    3707    3709
CTETRA     23329       1     385    3034    2357    2345
CTETRA     23330       1    2368     553    2768     549
CTETRA     23331       1    2881    5004    2740    2553
CTETRA     23332       1    2962    3047    3712    3082
CTETRA     23333       1    2059    2061    2065    2063
CTETRA     23334       1    2768    1649    3673    3707
CTETRA     23335       1     558     116      41     733
CTETRA     23336       1    2652    2623    1278     440
CTETRA     23337       1     822    2779    2640    1004
CTETRA     23338       1    2885    3467    2151    2435
CTETRA     23339       1    1879     439    1011    2515
CTETRA     23340       1    3054      79      82    2538
CTETRA     23341       1    4748    4742    4688    2805
CTETRA     23342       1    3612     769    3607    3611
CTETRA     23343       1     444    1005    3628     595
CTETRA     23344       1    1160    2288    2629    2631
CTETRA     23345       1    1551    1612    4239    1800
CTETRA     23346       1     738    2676    2675    3038
CTETRA     23347       1    2675    3035    2473    4620
CTETRA     23348       1    1551    2937    4238    4248
CTETRA     23349       1    2675    4602    2473    3090
CTETRA     23350       1     949    5366    5363    5364
CTETRA     23351       1    4601    3090    4619    3038
CTETRA     23352       1    2675    2679    4620    4638
CTETRA     23353       1    2676    2675    3038    4619
CTETRA     23354       1    2676    2675    4638    2679
CTETRA     23355       1    1544    2806     959    2679
CTETRA     23356       1     840     841    2216    2291
CTETRA     23357       1    1722     121    2672    3088
CTETRA     23358       1    1722    2901    2676    2672
CTETRA     23359       1    1972    3089    3055    1154
CTETRA     23360       1      87     422      80    1050
CTETRA     23361       1    2287    2288    1160    2631
CTETRA     23362       1    3471    2627    3764     590
CTETRA     23363       1    3607    3470     591    3612
CTETRA     23364       1    1496    5386    5387    4260
CTETRA     23365       1    2228    4772     864    1192
CTETRA     23366       1    4769    2228    4772     864
CTETRA     23367       1    2246    1862    2078    2842
CTETRA     23368       1    2273     697    2121    1134
CTETRA     23369       1    1190     176    4773     174
CTETRA     23370       1    1294    2444    4774    2228
CTETRA     23371       1     620     780    2792     618
CTETRA     23372       1     509    1727    2916     768
CTETRA     23373       1    2407    2078    1724     491
CTETRA     23374       1    3606     506    1728    1727
CTETRA     23375       1    1728    2839    3624    3597
CTETRA     23376       1    1726    1729    1728    3616
CTETRA     23377       1    1726    1727    3617    3616
CTETRA     23378       1    2916    3606    1727     506
CTETRA     23379       1    2803    3615    3571    1328
CTETRA     23380       1     694    2228    1192    1294
CTETRA     23381       1    1464    1551    1546    2937
CTETRA     23382       1    1150    1149    1151     503
CTETRA     23383       1    1149    5015    5036    5016
CTETRA     23384       1     337     340     338    2754
CTETRA     23385       1     340     338    2754    5036
CTETRA     23386       1    2697    2696    3880    3861
CTETRA     23387       1    1149    1151    5017    5037
CTETRA     23388       1    3938    2184    3945    3937
CTETRA     23389       1    2939    3083    3913    3914
CTETRA     23390       1    1024    2664    2665    2128
CTETRA     23391       1    1380    2217    1555    2939
CTETRA     23392       1     583    2897    1172    2939
CTETRA     23393       1    2721    4023    4022     675
CTETRA     23394       1    1424     231     232    1498
CTETRA     23395       1    1023     371     380    2128
CTETRA     23396       1    1655    1656    1661    1659
CTETRA     23397       1    2988    4570    2893    2891
CTETRA     23398       1    1585    4257    1549    1550
CTETRA     23399       1    2988    4570    3029    4569
CTETRA     23400       1    2988    3029    3024    4541
CTETRA     23401       1     797    4709     798     796
CTETRA     23402       1     796     797    4728    2242
CTETRA     23403       1    1411    5270    5264    5274
CTETRA     23404       1    1411     262     264     260
CTETRA     23405       1     365    3095     366    3048
CTETRA     23406       1    1550    1551    1612    4247
CTETRA     23407       1    2477     796    4737    2242
CTETRA     23408       1     796    2242    4728    4737
CTETRA     23409       1    1546    2937    1551    4248
CTETRA     23410       1     841    2291    1330    2216
CTETRA     23411       1    2624    2625    3011    5097
CTETRA     23412       1    2198    3086    3974    3084
CTETRA     23413       1    1561    1790     814    2325
CTETRA     23414       1    1561    1790    2325    1586
CTETRA     23415       1    1287    3938    3906    1288
CTETRA     23416       1     482    2625    2755    3011
CTETRA     23417       1     917    1617     711    1141
CTETRA     23418       1    1428    1587    1429    1430
CTETRA     23419       1    2374    4877    1597    5009
CTETRA     23420       1    1251    4878    4457    4877
CTETRA     23421       1    1989     236     836    2163
CTETRA     23422       1    2856    2280    1651    5162
CTETRA     23423       1    2060     793    3872    3871
CTETRA     23424       1     245    1225     247    3065
CTETRA     23425       1    1651    1588    2278    2281
CTETRA     23426       1    2856    5159    1430    1433
CTETRA     23427       1    2664    2870    3918    2128
CTETRA     23428       1    1696    1721    1074     121
CTETRA     23429       1    2901    2672    4656    4637
CTETRA     23430       1    2676    2806    2679    4638
CTETRA     23431       1    2806    2730    4658    4689
CTETRA     23432       1    2806    2679    4638    4658
CTETRA     23433       1     164     397    1567    2641
CTETRA     23434       1     984     164    2460     441
CTETRA     23435       1     164     791    2461     484
CTETRA     23436       1     870    2113     408     869
CTETRA     23437       1     400     941    2760     403
CTETRA     23438       1    1564    1546    4254    4251
CTETRA     23439       1    2461    5723    2237    5722
CTETRA     23440       1    1974    2796    2648    2210
CTETRA     23441       1    1163    1005    1010    1936
CTETRA     23442       1    2796    2792    4735    2890
CTETRA     23443       1    2210    2007    4469    4468
CTETRA     23444       1    2796    2210     587    4683
CTETRA     23445       1    4731     619    4740    2792
CTETRA     23446       1    2792    2241    4739    4730
CTETRA     23447       1     620     619    2241     566
CTETRA     23448       1    2685    2900    2805    4742
CTETRA     23449       1    1549    4255    4254    4257
CTETRA     23450       1    3068    2700    3815    2885
CTETRA     23451       1    3068    2629    3840    3002
CTETRA     23452       1     819    3068    2885    2700
CTETRA     23453       1    1722    3037    3088    2672
CTETRA     23454       1    3038    1155    1971    1722
CTETRA     23455       1    2288    2631    3469    3808
CTETRA     23456       1    2053    1344    2011    2876
CTETRA     23457       1     522     485    3925    3933
CTETRA     23458       1    2573    2104    2103    2781
CTETRA     23459       1     812     727    1199    1200
CTETRA     23460       1    1893     742    1891     390
CTETRA     23461       1    2652     685    1152     743
CTETRA     23462       1     929    2642     792    3929
CTETRA     23463       1    2069    2074    2073    3947
CTETRA     23464       1     219    1080    1369    1870
CTETRA     23465       1     816     819    1270    2885
CTETRA     23466       1    2512    2526    5105    5104
CTETRA     23467       1    2401    4525    3079    4526
CTETRA     23468       1     929    3929     792    3935
CTETRA     23469       1    1584    1820    1572    1571
CTETRA     23470       1    2642     495    3930    3936
CTETRA     23471       1    2642    3930    1095    3929
CTETRA     23472       1    1498    2358    1499    1547
CTETRA     23473       1     792    1095    3929    2642
CTETRA     23474       1    1174    3049    3099    3030
CTETRA     23475       1     762    2881    5005    4873
CTETRA     23476       1    2252    2251    2644    2722
CTETRA     23477       1    2768    2251    2644     301
CTETRA     23478       1    2064    3838    2638    3673
CTETRA     23479       1    1137    2704    2899    2715
CTETRA     23480       1    2061    2063    2723    3828
CTETRA     23481       1     106     876      95     887
CTETRA     23482       1     793    2723    3892    2870
CTETRA     23483       1    3067    2061    2437    3829
CTETRA     23484       1    2670    3701    3676    3677
CTETRA     23485       1     301    2638    2644    2768
CTETRA     23486       1      97    2723    2063     793
CTETRA     23487       1    2881    2702    5005    2553
CTETRA     23488       1    2024    1359    2025    1358
CTETRA     23489       1    2026    2613    5719    5718
CTETRA     23490       1     646    2109    2801    2341
CTETRA     23491       1     612     610    1398    1680
CTETRA     23492       1    1398     606    1401    1680
CTETRA     23493       1    2164    2026    2364    5717
CTETRA     23494       1    2026    5717    1359    2364
CTETRA     23495       1    2089    4342    4298    4297
CTETRA     23496       1    2613    3444    5718    2126
CTETRA     23497       1    1266    4935    1267    4980
CTETRA     23498       1     199    2094    1849    1850
CTETRA     23499       1    4978    4934    2855    2852
CTETRA     23500       1    2612    4934    4942    2056
CTETRA     23501       1    1266    1267    1303    1263
CTETRA     23502       1     996    1804    1230    2957
CTETRA     23503       1    1765     406    2752    2161
CTETRA     23504       1    1425    1990    1889    2215
CTETRA     23505       1    4981    1267    4980    1265
CTETRA     23506       1     765    2911    1894    2881
CTETRA     23507       1    2643    3833    3677    3676
CTETRA     23508       1    2947    2669    2708    2709
CTETRA     23509       1    3673    2768    3674    2638
CTETRA     23510       1    2739    2251    2644    2768
CTETRA     23511       1    3000    2620    4082    2621
CTETRA     23512       1     308    2910    3034    3013
CTETRA     23513       1    1435    1588    1403    2278
CTETRA     23514       1     568     574     570     567
CTETRA     23515       1     580    2665    3982    4032
CTETRA     23516       1     572     567     581    4028
CTETRA     23517       1    4023    3980     583    2939
CTETRA     23518       1    1039    1016    1037    1036
CTETRA     23519       1     591     769    3603    2414
CTETRA     23520       1    2627     591    3471    2484
CTETRA     23521       1     590     591    3471    2627
CTETRA     23522       1    1968     591     590    2627
CTETRA     23523       1     806    1155    1154    3078
CTETRA     23524       1     591     769    3612    3603
CTETRA     23525       1     591     590    3471    3470
CTETRA     23526       1    3099    3028    3889    3869
CTETRA     23527       1    2983    3916    2665    3917
CTETRA     23528       1     504    2023     489    3015
CTETRA     23529       1     580    4028    3981     583
CTETRA     23530       1     446    1601    2374    2468
CTETRA     23531       1    4974    4995    4973    2161
CTETRA     23532       1    1263    1303     865     656
CTETRA     23533       1     196     957    2932    1995
CTETRA     23534       1    1265    4974    4975    4981
CTETRA     23535       1    2923    4974    4975    1265
CTETRA     23536       1    1267    2855    1265    4981
CTETRA     23537       1    1422    1612    1551    1800
CTETRA     23538       1    1003    2923    2161    2849
CTETRA     23539       1    2855    4981    1267    4934
CTETRA     23540       1    1881     955     961     962
CTETRA     23541       1     962    3081    4964    4963
CTETRA     23542       1     961     960     882    2474
CTETRA     23543       1    2652    1278    2651     440
CTETRA     23544       1    1150     338    1149     503
CTETRA     23545       1    1152    1151    5038     743
CTETRA     23546       1    2625    2755    5123    5096
CTETRA     23547       1    1152     340    5037    1149
CTETRA     23548       1    1152    5089     743    5038
CTETRA     23549       1     480     489     497    1343
CTETRA     23550       1    2697    3862    3881    3882
CTETRA     23551       1    3882    1290    2697    2698
CTETRA     23552       1     725    1290     723    2698
CTETRA     23553       1    2697    3861    2698    2696
CTETRA     23554       1    2697    2143    3907    3880
CTETRA     23555       1    2697    3908    1291    1290
CTETRA     23556       1    2697    3882    3881    3908
CTETRA     23557       1    1287    1291    2697    3907
CTETRA     23558       1    2150    1964    3609     589
CTETRA     23559       1     510    2917    1965    2916
CTETRA     23560       1    1889    1990     231    2101
CTETRA     23561       1     118      81    1091    1640
CTETRA     23562       1     737     959     691    3035
CTETRA     23563       1    2685    4742    1004    2900
CTETRA     23564       1     125     595     119    1010
CTETRA     23565       1    1544    2901    2806    2676
CTETRA     23566       1     822    2779    1004     619
CTETRA     23567       1    2151     125     595     112
CTETRA     23568       1    2900    2805    4748    2920
CTETRA     23569       1    2372    1721    1696    2478
CTETRA     23570       1    1212    2805    2730    2806
CTETRA     23571       1    1294    2640    2444     511
CTETRA     23572       1    1294     511    2444    1192
CTETRA     23573       1    1726    1728    1729    1723
CTETRA     23574       1    1213    2805    2900    2920
CTETRA     23575       1    3469    3470    2631     589
CTETRA     23576       1     428     274     425    2416
CTETRA     23577       1    1640    2418    2442    1936
CTETRA     23578       1    1721     121    3088    1074
CTETRA     23579       1    3054    2538    3625    3599
CTETRA     23580       1    2792     618     619     620
CTETRA     23581       1     506    2916    3606    3610
CTETRA     23582       1    2917    1965    3611    3608
CTETRA     23583       1       3     282     280    1942
CTETRA     23584       1    2920    2900     823    2640
CTETRA     23585       1    2779    1293    2640    4753
CTETRA     23586       1    1726    1727    1728     509
CTETRA     23587       1    2920    4747    2900    2640
CTETRA     23588       1    2558    4114    2379    2557
CTETRA     23589       1    1158    3077    4451    1894
CTETRA     23590       1    2389    2530    2265    2736
CTETRA     23591       1    2549    3013    4521    4523
CTETRA     23592       1     912    1157     915     914
CTETRA     23593       1    1158    4450    2432    4451
CTETRA     23594       1     718    2452    1117    2546
CTETRA     23595       1     307    3077    2911    2910
CTETRA     23596       1    2432    1894    4871    2740
CTETRA     23597       1     254    1476    1477    3044
CTETRA     23598       1    4567    1353    4566    3029
CTETRA     23599       1     968    1607     969    1617
CTETRA     23600       1    1353    4486    1355    4565
CTETRA     23601       1    1353    4568    3029    1348
CTETRA     23602       1    1348    1355     349    1353
CTETRA     23603       1    1631    2400    1632      86
CTETRA     23604       1    3041    4571    1353    4565
CTETRA     23605       1      57     881    1607     880
CTETRA     23606       1    1632    2758    3685    3684
CTETRA     23607       1    1628    5360    2215    5361
CTETRA     23608       1     917    1617    1141     546
CTETRA     23609       1    2851    1107    3748    1103
CTETRA     23610       1    2758    1629    1101    1632
CTETRA     23611       1    2251    2386    2601    1619
CTETRA     23612       1    1894    1076     765    2740
CTETRA     23613       1    2059    2065    2062    2063
CTETRA     23614       1     757     764    3025    3033
CTETRA     23615       1     789    2060     793    2063
CTETRA     23616       1    1024    2664    2225    2665
CTETRA     23617       1    2740    1076     765    2553
CTETRA     23618       1    2723    3828    3873    2061
CTETRA     23619       1      98    2061    2723    2438
CTETRA     23620       1     715    3067    2990    2643
CTETRA     23621       1    1646    1642    1644    1233
CTETRA     23622       1    1627    1628    1625    5376
CTETRA     23623       1     765     762    2881    2702
CTETRA     23624       1    1650    1643    1649    1642
CTETRA     23625       1     762    2702    5006    5005
CTETRA     23626       1    1225    3072     762    2702
CTETRA     23627       1    4522    4521    3013    4523
CTETRA     23628       1    1649    3673    3672    1644
CTETRA     23629       1    4504    4521    3013    4522
CTETRA     23630       1    2910    3013    4504    3034
CTETRA     23631       1     764    3033    2910    4522
CTETRA     23632       1    2911    2910    4523    4452
CTETRA     23633       1    2630    4117    2628    2798
CTETRA     23634       1    1619    2617    1123    1125
CTETRA     23635       1    2643    3837    3067    3833
CTETRA     23636       1    2061    2437     715    3067
CTETRA     23637       1     716    2617    2620    2663
CTETRA     23638       1    2616    2264    1619    2386
CTETRA     23639       1    2669    3701    3704    3705
CTETRA     23640       1     713     716    2791     721
CTETRA     23641       1     766    2911     307    1894
CTETRA     23642       1    2534    1628    5376    1625
CTETRA     23643       1    2065    2061    3837    3828
CTETRA     23644       1    2062    2063    3828    3827
CTETRA     23645       1    2065    3675    2644    3836
CTETRA     23646       1    2062    2065    2644    3836
CTETRA     23647       1    2062    2644    3674    3836
CTETRA     23648       1    2722    2644    2643    3675
CTETRA     23649       1    2065    3837    2061    2643
CTETRA     23650       1    2663     719    4071    4070
CTETRA     23651       1    2947    2669    2251    2386
CTETRA     23652       1    2911    2881    4872    1894
CTETRA     23653       1    3077    2911    4451    1894
CTETRA     23654       1    1644    1649    1647    3672
CTETRA     23655       1    2911    1894    4872    4451
CTETRA     23656       1     254    1628    3044    2215
CTETRA     23657       1    4452     762    4873    2881
CTETRA     23658       1    2062    3674    2638    3838
CTETRA     23659       1    2881    2911    4452     762
CTETRA     23660       1    1059    2471    1060     478
CTETRA     23661       1    2573    2970    2781    3291
CTETRA     23662       1    4903    4902    2165    2858
CTETRA     23663       1    2971    4326    4904    5831
CTETRA     23664       1    1628    5360    3044    2215
CTETRA     23665       1     231    1889    1424    1425
CTETRA     23666       1    1404    1935    4955    4837
CTETRA     23667       1    1551    2937    1803    4238
CTETRA     23668       1    2025    5719    2613    3461
CTETRA     23669       1    1003    2855    2923    1265
CTETRA     23670       1    1890    2651     740     660
CTETRA     23671       1     891     893     895     898
CTETRA     23672       1    3086    3084    2886    3972
CTETRA     23673       1    5101    5084    1522    5100
CTETRA     23674       1    2214    3993     905    3992
CTETRA     23675       1    1468    1475    2305    1478
CTETRA     23676       1      26    1478    1473    1148
CTETRA     23677       1     368    1846    1996    2633
CTETRA     23678       1    1996    2202    3048    2633
CTETRA     23679       1     978    2123    2871    2873
CTETRA     23680       1      29     557    2743    1282
CTETRA     23681       1      41      38     561     560
CTETRA     23682       1    1272     560    1271    1274
CTETRA     23683       1    1393    1394    1006    1395
CTETRA     23684       1      29    2902    1393    1282
CTETRA     23685       1    1113    2890     587    2201
CTETRA     23686       1    1585    1496    4260    5386
CTETRA     23687       1     587    2006    4470    4469
CTETRA     23688       1    2210     587    4469    2007
CTETRA     23689       1    1113     587    2006    2201
CTETRA     23690       1    2648    4684    2796    4733
CTETRA     23691       1    1546    1424    1551    1464
CTETRA     23692       1     587    2890    4735    4682
CTETRA     23693       1    2796     587    4735    4683
CTETRA     23694       1      37    2271    1025    1395
CTETRA     23695       1    2676    2806    4638    4657
CTETRA     23696       1     807    1270     808     819
CTETRA     23697       1    2901    2806    2676    4657
CTETRA     23698       1     456    1971     738    2473
CTETRA     23699       1     143    2487    2486    3001
CTETRA     23700       1    2676    2675    4619    4638
CTETRA     23701       1    1249    1695    2707    1248
CTETRA     23702       1    1428     669    1186    1431
CTETRA     23703       1    2060    2063    3872     793
CTETRA     23704       1    2897    3868    3888    3028
CTETRA     23705       1    1140     243    2908    3063
CTETRA     23706       1     703     708     706     705
CTETRA     23707       1     446    3039    2374    2706
CTETRA     23708       1    2064    1644    3839    3673
CTETRA     23709       1     704    2899    2907    2908
CTETRA     23710       1    2374    1601    5010    5030
CTETRA     23711       1     377      96      91     239
CTETRA     23712       1    3028     242    3868    3869
CTETRA     23713       1     242    3823     243    3868
CTETRA     23714       1      60      72     547     553
CTETRA     23715       1     773    1218    2501    4558
CTETRA     23716       1    2729    1218    4581    1136
CTETRA     23717       1    3058    4556    4583    4557
CTETRA     23718       1     298    1616     384      65
CTETRA     23719       1    2728    4573    2169    4572
CTETRA     23720       1    2236    1062    1131    2402
CTETRA     23721       1    1217     215    2501    1218
CTETRA     23722       1    1312     773    2501    3071
CTETRA     23723       1    2402    2409    4270    1802
CTETRA     23724       1    1218    2501    4558    4489
CTETRA     23725       1    1533    1529    4230    4234
CTETRA     23726       1    1531    1533    1214    3014
CTETRA     23727       1    1285    1336    3746    3745
CTETRA     23728       1    2470    1099    3682    1107
CTETRA     23729       1    2200    2454    2453    1099
CTETRA     23730       1    2453    2470    1099    3682
CTETRA     23731       1    1285    1336    2122    3746
CTETRA     23732       1    1106    2470    2274    1107
CTETRA     23733       1    1884    1828    3014    4213
CTETRA     23734       1    3014    1828    4212    4213
CTETRA     23735       1    2122    3746    3788    2274
CTETRA     23736       1     425     632    2416     274
CTETRA     23737       1    1936     429    2346    2442
CTETRA     23738       1    3048     368    4679    4474
CTETRA     23739       1    4894    3095    3048     366
CTETRA     23740       1    3048    4894    4473    4893
CTETRA     23741       1    2950    5204    2212    1780
CTETRA     23742       1    1184     581    2939    2217
CTETRA     23743       1    1176    2897     244    3083
CTETRA     23744       1     380    2870     793    2664
CTETRA     23745       1     702    2899     241     242
CTETRA     23746       1    3028    3868     242     244
CTETRA     23747       1    2939    2897    3083    3914
CTETRA     23748       1     340     337     331     334
CTETRA     23749       1    1286    1291    1290    2697
CTETRA     23750       1     923     526     525    1276
CTETRA     23751       1    3907    2697    3908    1291
CTETRA     23752       1    3086    2886    1291    3972
CTETRA     23753       1    1291    3970    1290    3908
CTETRA     23754       1    1291    2886    3970    3972
CTETRA     23755       1    1537    2729    3059    2728
CTETRA     23756       1    1817    4556    4578    4583
CTETRA     23757       1     772    1816    1817     775
CTETRA     23758       1     490    3596    2275     491
CTETRA     23759       1    1240    1310     779    2614
CTETRA     23760       1    1213    2730    2805    2920
CTETRA     23761       1    1958    5212    5245    5250
CTETRA     23762       1    1861    2807    2844    2864
CTETRA     23763       1     666    2762    5229    3566
CTETRA     23764       1     693    1192     864    1189
CTETRA     23765       1    1960    1681    1958    5212
CTETRA     23766       1    2247    2842    5259    5224
CTETRA     23767       1     766     764    2910    2911
CTETRA     23768       1    1227    2644    2062    2065
CTETRA     23769       1     297    2265    2798    2263
CTETRA     23770       1    3706    1649    3673    3672
CTETRA     23771       1    1249    2707    3025    2705
CTETRA     23772       1    1167    2910    3033    3034
CTETRA     23773       1    2064    2060    3827    3826
CTETRA     23774       1    4531    4455    1695    1248
CTETRA     23775       1    1248    1695    4531    4532
CTETRA     23776       1    1695    3033    4533    2167
CTETRA     23777       1     764    3033    4522    4453
CTETRA     23778       1    4533    3033    4504    3034
CTETRA     23779       1    1174     248    2225    2913
CTETRA     23780       1     245    1225    3065    2127
CTETRA     23781       1      73     298      65     297
CTETRA     23782       1    2225    2664    2983    2665
CTETRA     23783       1    3063    1331    1988    2774
CTETRA     23784       1    2059    2060     789    2063
CTETRA     23785       1    2525    2512    1574    2526
CTETRA     23786       1    3072    2281    2280    5027
CTETRA     23787       1    2225    3030    2983    2664
CTETRA     23788       1    3072    5026    2281    5027
CTETRA     23789       1    1556    2636    5134    5156
CTETRA     23790       1    2280    2281    5161    5027
CTETRA     23791       1    2280    5161    1651    5162
CTETRA     23792       1    1814    3155    5191    5205
CTETRA     23793       1    1560    2898     907    2876
CTETRA     23794       1    1766    1818    2542    3126
CTETRA     23795       1    2652    1278     660    2651
CTETRA     23796       1    2465    2717    5103    5102
CTETRA     23797       1    1584    1572    2134    1571
CTETRA     23798       1    1343    2717    1168    1169
CTETRA     23799       1     905    2927    3993    2591
CTETRA     23800       1    1132    3971    1287    3946
CTETRA     23801       1     506    3606    1728    3599
CTETRA     23802       1    3054    2917    3610    3600
CTETRA     23803       1     595     115     117    1964
CTETRA     23804       1     511    1293    1294    2640
CTETRA     23805       1    2917    2916     510     506
CTETRA     23806       1    3095    4893    2814    4949
CTETRA     23807       1    2945    4895     366    3095
CTETRA     23808       1     883     212     939     937
CTETRA     23809       1    4473    3048    4474    4894
CTETRA     23810       1    1766    3129    4149    4148
CTETRA     23811       1    4893    2202    3048    3095
CTETRA     23812       1     366    2413     313     367
CTETRA     23813       1    4833    1627    2388    2387
CTETRA     23814       1    1638    5375    5371    5373
CTETRA     23815       1    2387    4815    4814    4833
CTETRA     23816       1    5376    1628    5370    5373
CTETRA     23817       1    2559    2561    1867    1477
CTETRA     23818       1    2417    2450    1083    5332
CTETRA     23819       1    1843    1462    4702    1842
CTETRA     23820       1    1462    1842    1463    4702
CTETRA     23821       1    4832    1865    4830    1461
CTETRA     23822       1    1476    5358    5371    5372
CTETRA     23823       1    4833    5375    4832    2388
CTETRA     23824       1    1461    1866    4828    1463
CTETRA     23825       1    1062    4274    1131    4273
CTETRA     23826       1    2982    2273      21     697
CTETRA     23827       1    2517    4671    4672    4652
CTETRA     23828       1    2374    3039    2468    5030
CTETRA     23829       1    2706    1597    5008    5009
CTETRA     23830       1    1174    2913    2983    3099
CTETRA     23831       1    1185    2925    1556    3039
CTETRA     23832       1    3039    2468    5030    5158
CTETRA     23833       1    1556    2468    5134    2636
CTETRA     23834       1     233     241    3027     238
CTETRA     23835       1    1176    2897    3028     244
CTETRA     23836       1    1233    3839    2064    1644
CTETRA     23837       1    1023     570    1823    1581
CTETRA     23838       1    2468    1187    2163    1556
CTETRA     23839       1     926    4127    2996     323
CTETRA     23840       1    1416    2636    1556    1418
CTETRA     23841       1     371     380    2128    2870
CTETRA     23842       1    2897     244    3083    3887
CTETRA     23843       1    2913    3099    1174    3028
CTETRA     23844       1     765     762    2911    2881
CTETRA     23845       1     310    2252     301     277
CTETRA     23846       1    2062    2065    3828    2063
CTETRA     23847       1     580    2665    3916    3982
CTETRA     23848       1     926     922    4128    4127
CTETRA     23849       1     302    1227     301     305
CTETRA     23850       1    2907     704    2704    2899
CTETRA     23851       1    1227    2638    2062    2644
CTETRA     23852       1    2062    3828    2065    3836
CTETRA     23853       1    2062    2638    3674    2644
CTETRA     23854       1    2064    2062    2638    3838
CTETRA     23855       1     413     417     420     994
CTETRA     23856       1     762    3072    5006    2702
CTETRA     23857       1    3025    3033     764    4453
CTETRA     23858       1     983    2046    2136    3075
CTETRA     23859       1    2046    2516    3075    2515
CTETRA     23860       1     686     743     741     848
CTETRA     23861       1     135     991    2257     989
CTETRA     23862       1    2463    1094    2462    3814
CTETRA     23863       1    2463    3801     790    3814
CTETRA     23864       1    2463    2462    3462    3814
CTETRA     23865       1     790    2460     791    3801
CTETRA     23866       1    2460    2461    3799    5723
CTETRA     23867       1    2460    3801    2463    3813
CTETRA     23868       1     488     835    1590    1170
CTETRA     23869       1    1344    2927    3084     905
CTETRA     23870       1    3084    2886    3972    3966
CTETRA     23871       1    2652    2623     440    5081
CTETRA     23872       1    1168    2717    5122    1169
CTETRA     23873       1    1508     931     532    1921
CTETRA     23874       1    1295    1291    3086    2886
CTETRA     23875       1    2456    2465    5103    5107
CTETRA     23876       1    3030    3870    3871    2060
CTETRA     23877       1    2276    3027     702    1233
CTETRA     23878       1    1138    1249     449     450
CTETRA     23879       1    5028    2280    3065    3040
CTETRA     23880       1    1648    1137    2715    1646
CTETRA     23881       1    2598    4356     520    4383
CTETRA     23882       1    2809    4416    4409    4408
CTETRA     23883       1     330    2994    1413    1939
CTETRA     23884       1     926    4137    2996    4127
CTETRA     23885       1    2813    4402    4409    4410
CTETRA     23886       1    1686    2579     326    2209
CTETRA     23887       1    1413    4839    1939    4959
CTETRA     23888       1    3042    4424    4423    4431
CTETRA     23889       1     340    5036    2754    5096
CTETRA     23890       1     440    2623    2624    5081
CTETRA     23891       1    1278    1340     658     440
CTETRA     23892       1     336     338     340    1149
CTETRA     23893       1     334    2625     340    2754
CTETRA     23894       1    2068    2075    1706    2634
CTETRA     23895       1    2876    3084    3965     905
CTETRA     23896       1    1024    2665    2225     569
CTETRA     23897       1    1433    1556    5156    1418
CTETRA     23898       1    2925    5029    5160    5158
CTETRA     23899       1     568     572     567     581
CTETRA     23900       1    2996    1769    3043    4137
CTETRA     23901       1    1654    1589    1587    1429
CTETRA     23902       1    1133    1231    1106    1104
CTETRA     23903       1    1385    3111    1391    3160
CTETRA     23904       1     580    2913    3915    3916
CTETRA     23905       1    1329    2985    2291    2293
CTETRA     23906       1    2571    3131    3169    3132
CTETRA     23907       1    1385    1387    3161    3160
CTETRA     23908       1     581    2939    2217    4023
CTETRA     23909       1    2160    3098    4993    4992
CTETRA     23910       1    4971    2515    2752    2160
CTETRA     23911       1    2515    4971    4970    4992
CTETRA     23912       1    1011    2515    2257    2751
CTETRA     23913       1    2542    1783    3112    1385
CTETRA     23914       1    1935    2945    2474    4895
CTETRA     23915       1     954    2474     962    4954
CTETRA     23916       1    4894    2474    3095    4895
CTETRA     23917       1    2474    3095    4949    4894
CTETRA     23918       1     954    1404     283     953
CTETRA     23919       1    2474    4953     962    4954
CTETRA     23920       1    1249    3025    2707    1695
CTETRA     23921       1    1175    3030    2060    3049
CTETRA     23922       1    2569    1064     574    1020
CTETRA     23923       1    2913    3028    2897    3888
CTETRA     23924       1     446    2468    2374    3039
CTETRA     23925       1     837    1768    1379    1988
CTETRA     23926       1    1661     188    1656    1429
CTETRA     23927       1     580    2665    2983    3916
CTETRA     23928       1    2913    3888    2897    3915
CTETRA     23929       1    3030    3890    2983    2664
CTETRA     23930       1    5009    5030    5029    2706
CTETRA     23931       1    2705    2706    1597    5008
CTETRA     23932       1    3040    5029    2706    5028
CTETRA     23933       1    2374    2706    5009    1597
CTETRA     23934       1    3099    3049    1174    3027
CTETRA     23935       1    2983    3917    2665    2664
CTETRA     23936       1    2913     248    2225     580
CTETRA     23937       1    1225    2127     762    3072
CTETRA     23938       1    2983    3917    2664    3890
CTETRA     23939       1    2913    3099    3028    3889
CTETRA     23940       1    2444    1294    4774    4753
CTETRA     23941       1    2920    2640    4753    4747
CTETRA     23942       1    4753    2640    2444    1294
CTETRA     23943       1    3600    2418    3054    1964
CTETRA     23944       1    2418      80    2442    2538
CTETRA     23945       1    1190    2920    2444    4755
CTETRA     23946       1     506    3610    2917    2916
CTETRA     23947       1    3054    3610     506    3599
CTETRA     23948       1      79    3054     506    1728
CTETRA     23949       1    3054    2917     506    3610
CTETRA     23950       1     101     527    2626    2712
CTETRA     23951       1    3605    2916    3606    1727
CTETRA     23952       1    1728    1727    3616    3606
CTETRA     23953       1    1726    1727    3616    1728
CTETRA     23954       1    1016    2720    1039    1037
CTETRA     23955       1     334     335     331     340
CTETRA     23956       1    2624    3011    5121    5097
CTETRA     23957       1    1909    1343    2717    1574
CTETRA     23958       1    1341    2465    1181    1168
CTETRA     23959       1    2624    1168    5121    3011
CTETRA     23960       1    1886     193     191    2226
CTETRA     23961       1     612    2031     610    2137
CTETRA     23962       1    1994    1995    2613    3461
CTETRA     23963       1    1886    2226    4316    2861
CTETRA     23964       1    1003    1059    2923    2849
CTETRA     23965       1    1995    5720    2025    3461
CTETRA     23966       1     892     893     894    2033
CTETRA     23967       1    2025    5720    2932     941
CTETRA     23968       1    3437    2760     484     483
CTETRA     23969       1    2760     483    3437    2932
CTETRA     23970       1    2932     941    5721    2760
CTETRA     23971       1     568     581     567     580
CTETRA     23972       1    1186     248     579     569
CTETRA     23973       1    1652    2856    1651    5162
CTETRA     23974       1    2841    3073    3179    2377
CTETRA     23975       1     583     580    2913    3915
CTETRA     23976       1    1587    2856    1459    1651
CTETRA     23977       1    2913    3028    3888    3889
CTETRA     23978       1    5717    2869     296    2364
CTETRA     23979       1    3370    2318    3368    4331
CTETRA     23980       1    2164    2653    3445    2869
CTETRA     23981       1    2653    1811    5715    5716
CTETRA     23982       1    2164    2869    5717    2364
CTETRA     23983       1    2319    2318    2577    3370
CTETRA     23984       1    2207    2058    2208    1908
CTETRA     23985       1    2177    2741    4900    4911
CTETRA     23986       1    2207    2030    1712    2490
CTETRA     23987       1    2394    2087    2089    4341
CTETRA     23988       1    2319    4339    4331    4338
CTETRA     23989       1    2906    2600    2937    4237
CTETRA     23990       1    1499    3524    3523    3532
CTETRA     23991       1     420     972     698     699
CTETRA     23992       1    1252    1253    1545    1254
CTETRA     23993       1    1547    2424    2358    3535
CTETRA     23994       1    2358    2424    3515    3535
CTETRA     23995       1    1254    2358    3515    3525
CTETRA     23996       1    1252    2906    2600    2937
CTETRA     23997       1    2151     444    3602     595
CTETRA     23998       1    4636    3037    2672    3088
CTETRA     23999       1    4617    4465    3037    3088
CTETRA     24000       1     591    3607     769     589
CTETRA     24001       1    1270    2288    2151    2885
CTETRA     24002       1     816     821    2884    2520
CTETRA     24003       1    1212    2805    2685    2900
CTETRA     24004       1    1004    4746    2640    4747
CTETRA     24005       1     111     114     808    1721
CTETRA     24006       1     114     746     745    1211
CTETRA     24007       1    1074    2650    4654    4466
CTETRA     24008       1    1965     771     588     589
CTETRA     24009       1    1212    2901    2805    2806
CTETRA     24010       1     735      40     442      28
CTETRA     24011       1    4732    2685    4742    1004
CTETRA     24012       1    1965    3609    3607    3608
CTETRA     24013       1    2287     590     589    2631
CTETRA     24014       1    2671    2901    2672    4656
CTETRA     24015       1    2685    2901    4688    2805
CTETRA     24016       1      40     444     442     443
CTETRA     24017       1     121    1074    2671    3088
CTETRA     24018       1     121    2901    2671    2685
CTETRA     24019       1    2901    4688    2805    4657
CTETRA     24020       1    2901    4637    2676    2672
CTETRA     24021       1    2671    2685    2901    4656
CTETRA     24022       1     619    4741    4740    4746
CTETRA     24023       1     766     765    1894    1076
CTETRA     24024       1    2913    3099    3889    2983
CTETRA     24025       1    2277    2422     100     322
CTETRA     24026       1     762    4452    4453     764
CTETRA     24027       1    1769    4137    4143    4140
CTETRA     24028       1     766     762     764    2911
CTETRA     24029       1     762    2881    2702    5005
CTETRA     24030       1     764    2127    4874     762
CTETRA     24031       1    4873     762    4452    4453
CTETRA     24032       1    2127     762    5006    4874
CTETRA     24033       1    2127     762    3072    5006
CTETRA     24034       1    3025    4454    1695    4503
CTETRA     24035       1     764     757    3025    2127
CTETRA     24036       1    2064    3827    2062    3838
CTETRA     24037       1    2276    2715    3843    3841
CTETRA     24038       1    1642    1644    1649    1647
CTETRA     24039       1    1167    3033    2167    3034
CTETRA     24040       1    2167     757    1695    3033
CTETRA     24041       1    1644    1643    2768    2638
CTETRA     24042       1    2276    3824    3027    3825
CTETRA     24043       1     449    2707    2705    1597
CTETRA     24044       1      55     878    1637     879
CTETRA     24045       1    1233    1646    3672    1644
CTETRA     24046       1    1248    4530    4455    2707
CTETRA     24047       1    1695    2167    4533    4532
CTETRA     24048       1    1695    4533    3033    4503
CTETRA     24049       1    2871     978     980    2123
CTETRA     24050       1    2875     524     526    5020
CTETRA     24051       1     335    2623    2625    2624
CTETRA     24052       1    2010     679    1096    2185
CTETRA     24053       1     335    2623     340    2625
CTETRA     24054       1    1286    1287    1291    2697
CTETRA     24055       1    3065     247    3040    2280
CTETRA     24056       1     447     836    1987    1988
CTETRA     24057       1    2280    1185    2925    2856
CTETRA     24058       1     300     766     302     308
CTETRA     24059       1    1597    2705     449    2706
CTETRA     24060       1    1402    2280    3065    3072
CTETRA     24061       1    3030    3890    3099    2983
CTETRA     24062       1    2913    3916    2983    3889
CTETRA     24063       1    3027    3028    3869     242
CTETRA     24064       1    3065    5007    3072    5027
CTETRA     24065       1    3065    2706    5008    5028
CTETRA     24066       1    3065    5027    3072    2280
CTETRA     24067       1    2705    3065    2706    5008
CTETRA     24068       1    2127    3065    5007    3072
CTETRA     24069       1    3040    3065    5028    2706
CTETRA     24070       1     583    2939    3914    2897
CTETRA     24071       1     558     735    1163      37
CTETRA     24072       1     583    2913    2897    3915
CTETRA     24073       1     583    4023     581    4028
CTETRA     24074       1     580    2983    2913    3916
CTETRA     24075       1    5027    5028    2280    3065
CTETRA     24076       1     652    5283     651    5282
CTETRA     24077       1    3040    5028    2280    5152
CTETRA     24078       1    5152    5028    5160    2925
CTETRA     24079       1    5029    3039    2925    3040
CTETRA     24080       1    3040    2706    5029    3039
CTETRA     24081       1    3049    1175    1174     238
CTETRA     24082       1    1185    1187     446    3039
CTETRA     24083       1    1901    1921     929    3942
CTETRA     24084       1    2033    1993    1992    2005
CTETRA     24085       1    3943     544    1228     543
CTETRA     24086       1    1999    3952    3957    3941
CTETRA     24087       1    1921     543     929    3942
CTETRA     24088       1    2000    3926     485    3933
CTETRA     24089       1    2159    2158    1765    1626
CTETRA     24090       1    1901     927    3934    2000
CTETRA     24091       1     909     908     478    5079
CTETRA     24092       1     374    2521     627    5054
CTETRA     24093       1    2969    5071    5070    5058
CTETRA     24094       1    1010    1936    3647    2418
CTETRA     24095       1     119    1010     595    1964
CTETRA     24096       1    1964    2917    3600    3608
CTETRA     24097       1    3609    1964    1965     589
CTETRA     24098       1     589    3609    3607    1965
CTETRA     24099       1     650     652    5283     651
CTETRA     24100       1     818    5285     652     993
CTETRA     24101       1     510    1964     771    1965
CTETRA     24102       1    1212    2901    2685    2805
CTETRA     24103       1    2671    1074    4655    3088
CTETRA     24104       1    2287     589    3469    2631
CTETRA     24105       1     595    1964    3601    3609
CTETRA     24106       1    2150     589    3609    3469
CTETRA     24107       1    2161    4995    4973    4994
CTETRA     24108       1    4972    2752    2753    2161
CTETRA     24109       1    2161    2159    2160    1765
CTETRA     24110       1    2753    1479     406    2752
CTETRA     24111       1    2852    2161    4982    2753
CTETRA     24112       1     439     406    2752    1765
CTETRA     24113       1     113     558      41      40
CTETRA     24114       1    2257    2751    4984    4930
CTETRA     24115       1    4984    4971    2515    2752
CTETRA     24116       1    2753    4983    4931    2752
CTETRA     24117       1    4932    2753    4983    4931
CTETRA     24118       1    2256    2257    4930    2751
CTETRA     24119       1    1617    3007     546     880
CTETRA     24120       1    1732    3029    1353    2172
CTETRA     24121       1    1352    2376    1355    1346
CTETRA     24122       1    1120    1128     459    1129
CTETRA     24123       1     696     697    2121    2123
CTETRA     24124       1    2311    2304    4290    2303
CTETRA     24125       1    2312    4385    2115    2303
CTETRA     24126       1    2311    4384    3371    3374
CTETRA     24127       1     274     632     275     104
CTETRA     24128       1    5713    2260    3373    1798
CTETRA     24129       1    2141    1785    1786    1784
CTETRA     24130       1    2209    2030    2207    2490
CTETRA     24131       1    1912    1602     140    2809
CTETRA     24132       1     318     326    2611    2490
CTETRA     24133       1     518    1602    2155    1603
CTETRA     24134       1     633    1592    2688    3408
CTETRA     24135       1     921     920    2384    4129
CTETRA     24136       1    2579     326    2209    4841
CTETRA     24137       1    2860    2209    1908    4908
CTETRA     24138       1    2209    4897    1908    4908
CTETRA     24139       1    4896    2209    4841    4910
CTETRA     24140       1    2209     326    4897    4896
CTETRA     24141       1    2209     326    2490    4897
CTETRA     24142       1    1853    4918    2451    2149
CTETRA     24143       1    2515     439    2160    3098
CTETRA     24144       1    1765    2849     406    2161
CTETRA     24145       1     173     984     791     790
CTETRA     24146       1    1093    2463    1094    2462
CTETRA     24147       1    2460    3799    2461     791
CTETRA     24148       1    2113    2237    2460    5723
CTETRA     24149       1    2191    1567     892     166
CTETRA     24150       1    2008    2113    2460    2463
CTETRA     24151       1     791    3801    3901     790
CTETRA     24152       1    3801    2460     791    3800
CTETRA     24153       1    2460    2463    3801     790
CTETRA     24154       1     123    1004    2900    2685
CTETRA     24155       1    2025    2026    2613    5719
CTETRA     24156       1     196    1995    2932    2025
CTETRA     24157       1     165     167     388     535
CTETRA     24158       1     865     866    1296     942
CTETRA     24159       1     194    2162    2086    2562
CTETRA     24160       1    1995    2932    2025    5720
CTETRA     24161       1     422    2153    2152     423
CTETRA     24162       1    2863    5255    5256    5243
CTETRA     24163       1    1293    4759    1294    4753
CTETRA     24164       1     666     103    2839    3619
CTETRA     24165       1    2153     667     104     103
CTETRA     24166       1     118    1091     124     119
CTETRA     24167       1     262     947    1304    1412
CTETRA     24168       1    2475    4762    1292    4752
CTETRA     24169       1      80    1345    2442    2538
CTETRA     24170       1    2948    2857    2998    3136
CTETRA     24171       1    3625    2442    1345    2538
CTETRA     24172       1    2917      79    3054     506
CTETRA     24173       1    3636    1345    3624    3625
CTETRA     24174       1    3640    3625    2442    1345
CTETRA     24175       1     103     105    3635    3631
CTETRA     24176       1    2538    3598    1728    3624
CTETRA     24177       1     930    1492    2645    1391
CTETRA     24178       1    1522    2521    5084    5054
CTETRA     24179       1    1775     957     956     523
CTETRA     24180       1    1522    5084    5101    5055
CTETRA     24181       1     440    1181    5098    2624
CTETRA     24182       1    2040    3275    1206    3273
CTETRA     24183       1     816    1092    1097     362
CTETRA     24184       1    1821    1586    3239    1571
CTETRA     24185       1     961     962     954    2474
CTETRA     24186       1     560    2138    1274    1750
CTETRA     24187       1    2008    2113    2463    2462
CTETRA     24188       1    1279    5727    2952    1760
CTETRA     24189       1    3095    2474    1982     882
CTETRA     24190       1    2950    2212    1769    1780
CTETRA     24191       1    4530    1598    1245    4494
CTETRA     24192       1    1596    2216    3092    1601
CTETRA     24193       1    1233    3049    3825    3027
CTETRA     24194       1    4455    2707    4454    1695
CTETRA     24195       1     245    2705    2127    3065
CTETRA     24196       1    1642    1648    1233    1646
CTETRA     24197       1    1248    2167    4532    2176
CTETRA     24198       1    1128      85      84    2009
CTETRA     24199       1    2144    1022    1018    1823
CTETRA     24200       1    2059    2062    2064    2060
CTETRA     24201       1    2060    1789    3049    2064
CTETRA     24202       1     707     578    1166    1247
CTETRA     24203       1    2705    1249     245    2127
CTETRA     24204       1    2064    2060    2062    3827
CTETRA     24205       1     757    2910     764    3033
CTETRA     24206       1    3025    4503    1695    3033
CTETRA     24207       1      40      28      30     442
CTETRA     24208       1    2174     578    2176    1246
CTETRA     24209       1    2127    3025    4454    2705
CTETRA     24210       1    1810    1387    1391    3159
CTETRA     24211       1    3025    4503    3033    4453
CTETRA     24212       1    1645    1233    2064    1644
CTETRA     24213       1     564     442      30    1313
CTETRA     24214       1    2650    4685    4467    4468
CTETRA     24215       1     512     823    1213     123
CTETRA     24216       1     618     123    2541    1004
CTETRA     24217       1    1270    2435    2330    2885
CTETRA     24218       1     735      40     444     442
CTETRA     24219       1     735     442     444    3654
CTETRA     24220       1      75     507     508     511
CTETRA     24221       1    1119    2210    2007     587
CTETRA     24222       1    2647    2210    2648    4685
CTETRA     24223       1    1711     988    2054     131
CTETRA     24224       1    1025    1221    1006    1027
CTETRA     24225       1    1119    2890    2796     587
CTETRA     24226       1     780    2796    2890    2792
CTETRA     24227       1    2921    1749    1094    2462
CTETRA     24228       1    2993    2647    4685    2210
CTETRA     24229       1    4414    4413    4406    2427
CTETRA     24230       1    2133      69     521     515
CTETRA     24231       1     644     646     647    2811
CTETRA     24232       1     520    4383    4382    4388
CTETRA     24233       1     648    4438    2610    4442
CTETRA     24234       1    2953    3362    1319    3384
CTETRA     24235       1    2480    2363    4847    4479
CTETRA     24236       1     285    1941     291    1623
CTETRA     24237       1    2225    1174    2983    3030
CTETRA     24238       1    2225     380    1175    3030
CTETRA     24239       1    3027    3099    3869    3028
CTETRA     24240       1     245    2706    2705    3065
CTETRA     24241       1    1233    3049    2064    3826
CTETRA     24242       1    2707    2705    1597    4876
CTETRA     24243       1    2705    3025    4454    2707
CTETRA     24244       1    2707    4454    1695    3025
CTETRA     24245       1    2127    2705    5007    3065
CTETRA     24246       1    2127    3072    5007    5006
CTETRA     24247       1    2705    1597    4876    5008
CTETRA     24248       1    2705    3065    5008    5007
CTETRA     24249       1     477    5069    5070    5071
CTETRA     24250       1    2108     899     958    2029
CTETRA     24251       1    2904    5683    3304    3305
CTETRA     24252       1    1656     783    3087    1874
CTETRA     24253       1     372      92      95     379
CTETRA     24254       1    2939    4023     581     583
CTETRA     24255       1    4032    4028    3981     580
CTETRA     24256       1    1431    2925    1433    1556
CTETRA     24257       1    2571    2377    3180    3103
CTETRA     24258       1    1414    1655    1656    1429
CTETRA     24259       1    2665     567    4032     580
CTETRA     24260       1    1414    1417    1416    1418
CTETRA     24261       1    1233    2276    3027    3825
CTETRA     24262       1    2127    1249     245     763
CTETRA     24263       1    2060    3870    3871    3826
CTETRA     24264       1    3049    3027    3870    3825
CTETRA     24265       1     713    1554      95     321
CTETRA     24266       1    1225    3065    2127    3072
CTETRA     24267       1    4874     764    4453    3025
CTETRA     24268       1    3025    2127    4874     764
CTETRA     24269       1    4454    2705    4875    2127
CTETRA     24270       1    2127    4454    3025    4874
CTETRA     24271       1    2127    5007    2705    4875
CTETRA     24272       1    3061    3543    2639    3552
CTETRA     24273       1    3552    2322    2639    2513
CTETRA     24274       1    1308    3061    3018    2639
CTETRA     24275       1    1307    3061    2639    2513
CTETRA     24276       1    1308    3018    3061    2410
CTETRA     24277       1    1369    1871    1870    2522
CTETRA     24278       1    1020    2821    2144    2570
CTETRA     24279       1    1815    2784    2190    2404
CTETRA     24280       1    1815    2761    2784    2404
CTETRA     24281       1      53    2965    2189     554
CTETRA     24282       1     125     735     444    1005
CTETRA     24283       1    1190    4773     176    4690
CTETRA     24284       1    5248    1835    2776    1542
CTETRA     24285       1    2640    1293    1294    4753
CTETRA     24286       1      79    3054    1728    2538
CTETRA     24287       1    4753    2920    4754    2444
CTETRA     24288       1    1190    2730    4690     176
CTETRA     24289       1    2475    4751    2779     566
CTETRA     24290       1     511     695    1213    1192
CTETRA     24291       1    1048    1049    2865    2776
CTETRA     24292       1    2442    2538    3625    2418
CTETRA     24293       1     666    2282    2284     667
CTETRA     24294       1    3054    2418    3626    3625
CTETRA     24295       1     605    1398    1401    1397
CTETRA     24296       1    1268    4979    1266    4980
CTETRA     24297       1    2162    3447    3453    3448
CTETRA     24298       1     173     929     661    2642
CTETRA     24299       1     536    2159    5045     909
CTETRA     24300       1    1911     140    1912    1602
CTETRA     24301       1    1567    1901    1888    2641
CTETRA     24302       1    2191    2000    2641     484
CTETRA     24303       1     153    2019    2970    2082
CTETRA     24304       1     196     942    2025    2932
CTETRA     24305       1    2027     899    2105    1436
CTETRA     24306       1    2158    5044     389    5052
CTETRA     24307       1     536    5045    2158    5077
CTETRA     24308       1     169     170     660     375
CTETRA     24309       1    1765    2752    2160    2161
CTETRA     24310       1     153     152     626    2082
CTETRA     24311       1     173     929    2642     792
CTETRA     24312       1    1626    2158    1765     388
CTETRA     24313       1    2641     791    3900     792
CTETRA     24314       1     929    2641    3927     792
CTETRA     24315       1    2641    2000    3926     484
CTETRA     24316       1    2317    2233    4853    4859
CTETRA     24317       1    2623    2625    5097    5080
CTETRA     24318       1    2651     740    5090    1890
CTETRA     24319       1    2011    3086    2198    3084
CTETRA     24320       1    1286    1287    2697    2143
CTETRA     24321       1    1152    5037     340    5080
CTETRA     24322       1    1287    3946    3938    1132
CTETRA     24323       1    1287    3086    1291    3969
CTETRA     24324       1    1287    3906    2143    1288
CTETRA     24325       1    3946    1287    3938    3906
CTETRA     24326       1    1287    1291    3907    3969
CTETRA     24327       1    5038    5037    1151    1152
CTETRA     24328       1    2234    1405    4851    4845
CTETRA     24329       1    2010    1287    1132    3086
CTETRA     24330       1    1287    3086    3969    3971
CTETRA     24331       1    1287    3907    2697    2143
CTETRA     24332       1    1133    1791     696    1134
CTETRA     24333       1    1433    5158    2925    5159
CTETRA     24334       1    2317    4431    2233    4859
CTETRA     24335       1    5159    2856    5160    2925
CTETRA     24336       1    1332    2356     448    2216
CTETRA     24337       1    2925    5158    1556    3039
CTETRA     24338       1    1185    2925    3039    3040
CTETRA     24339       1    5152    2925    5160    2856
CTETRA     24340       1    3084    1344    2011    2886
CTETRA     24341       1    2204    4849    1405    2234
CTETRA     24342       1    1181    2624    1168    5098
CTETRA     24343       1    1573    1579    2465    2052
CTETRA     24344       1    1573    1343    2717    2465
CTETRA     24345       1    2011    1509    1566     659
CTETRA     24346       1    2198    2876    3084    3974
CTETRA     24347       1     905    3964    2876     907
CTETRA     24348       1    2876    3965    3084    3974
CTETRA     24349       1    1340    1181     440    2624
CTETRA     24350       1    2198    1132    3971    3086
CTETRA     24351       1    1341    1181    2624    1168
CTETRA     24352       1    1704    1206    3282    2883
CTETRA     24353       1    2456     534    2465    5107
CTETRA     24354       1    3973    2898    2198    2876
CTETRA     24355       1     641     655      11     209
CTETRA     24356       1      61     382     911     910
CTETRA     24357       1     414    1133    1235    1236
CTETRA     24358       1     702    2276     242    3027
CTETRA     24359       1    2276    2899    3843    2715
CTETRA     24360       1    2276    3027    3824     242
CTETRA     24361       1    1249    2707    1598    1248
CTETRA     24362       1    4530    1598    2707    1248
CTETRA     24363       1     607     528     530     872
CTETRA     24364       1    2707    1597    4877    4876
CTETRA     24365       1    2707    4530    4455    4456
CTETRA     24366       1    2707    2705    4876    4875
CTETRA     24367       1    2732     878      70    1812
CTETRA     24368       1    1137    2276    2715    2899
CTETRA     24369       1    4368    2206    2428    4295
CTETRA     24370       1    1933    1347    1234     215
CTETRA     24371       1    1537    1614    2728    1536
CTETRA     24372       1    1009     382    2912    1143
CTETRA     24373       1    1635    3041    2170    1353
CTETRA     24374       1    1099    3737    2878    3729
CTETRA     24375       1    2449    2656    1969    2080
CTETRA     24376       1    2454    2453    3729    3723
CTETRA     24377       1    2454    1099    3729    2453
CTETRA     24378       1     773    4558    4579    2729
CTETRA     24379       1    1216     215    1218    2376
CTETRA     24380       1    3058    4564    4556    4557
CTETRA     24381       1     755    4191    3051    4216
CTETRA     24382       1    3059    2729    4584    2728
CTETRA     24383       1    4581    1136    4580    2729
CTETRA     24384       1    2729    4558    4579    4581
CTETRA     24385       1    1136    2729    4584    4580
CTETRA     24386       1    1004     619    2779    4746
CTETRA     24387       1    2779    4753    2640    4746
CTETRA     24388       1    4842    1687    2860    2209
CTETRA     24389       1    2779    1293    4753    4752
CTETRA     24390       1    1293    2779    2640     822
CTETRA     24391       1    2779     566    4751    4745
CTETRA     24392       1    2475    2779    4752    1293
CTETRA     24393       1    1640     119      82    1010
CTETRA     24394       1     124     618    1974     780
CTETRA     24395       1    1010    3600    3601    1964
CTETRA     24396       1    2418    3054    3626    3600
CTETRA     24397       1    3054    1964    2917    3600
CTETRA     24398       1    2418    1010    3627    3647
CTETRA     24399       1     115    2150    1964     595
CTETRA     24400       1      82    1964    2418    1010
CTETRA     24401       1    2541    2792    4731    2796
CTETRA     24402       1    4742    1004    4747    4741
CTETRA     24403       1     608    2031     613    2451
CTETRA     24404       1    4731    4741    4740     619
CTETRA     24405       1     618     619     822    1004
CTETRA     24406       1    1004    4747    2640    2900
CTETRA     24407       1    2316    1413    4851    1405
CTETRA     24408       1    4417    2813    4867    1188
CTETRA     24409       1    1413    4840     326    2579
CTETRA     24410       1    1413    1405    4839    4851
CTETRA     24411       1    2133    5710    2953    3385
CTETRA     24412       1    1560    2053    2876    1344
CTETRA     24413       1    2010    1287    1288    2185
CTETRA     24414       1     336     340    1152    1149
CTETRA     24415       1     684    1149    1152    1151
CTETRA     24416       1    2652     743    1152    5089
CTETRA     24417       1    2623    1152     340    5080
CTETRA     24418       1     847     813    1286     725
CTETRA     24419       1    1852    2860    1908    4906
CTETRA     24420       1    3965     905    3964    2876
CTETRA     24421       1    1075    4032     567    4031
CTETRA     24422       1    4046    1580    1582    4041
CTETRA     24423       1    1582    2854    4046    4044
CTETRA     24424       1     186    1659    3087    3213
CTETRA     24425       1     211    5144    3087    5147
CTETRA     24426       1    1417     783    5146    5140
CTETRA     24427       1    1429    1653    2746    2749
CTETRA     24428       1    3207    3213    1659     186
CTETRA     24429       1    1419    5140    1417    5157
CTETRA     24430       1    1172     583    2913    2897
CTETRA     24431       1     675    2217    2721    4023
CTETRA     24432       1    1414    1428    1431     669
CTETRA     24433       1    1662    1873    1415    1417
CTETRA     24434       1    3469    2150    2288    3468
CTETRA     24435       1    2649    4732    2685    4687
CTETRA     24436       1    2578    2579    1689    4857
CTETRA     24437       1    2151    2288    3807    2885
CTETRA     24438       1     595    2150    3609    3602
CTETRA     24439       1     443    3466    3629     442
CTETRA     24440       1    1678    1294    4768    2228
CTETRA     24441       1    1048    1055    1049    1542
CTETRA     24442       1    2864    5238    1053    5237
CTETRA     24443       1    1709    1690    4360    4365
CTETRA     24444       1    1523    1674    5243    1524
CTETRA     24445       1    1542    1058    1055    5239
CTETRA     24446       1    5240    1835    5248    1542
CTETRA     24447       1    2475    2637    4751    1540
CTETRA     24448       1    2249    2844    2863    2864
CTETRA     24449       1    3068    1270    2288    1160
CTETRA     24450       1     444    1005    3654    3628
CTETRA     24451       1    2647    1074    2650    4654
CTETRA     24452       1    1074    1721    1696    2372
CTETRA     24453       1    1696     116     733    1274
CTETRA     24454       1    2671    2649    2685    4687
CTETRA     24455       1    1160    1944    1211    2287
CTETRA     24456       1    1146    1318    5708    5913
CTETRA     24457       1    1146    5708    1318    1320
CTETRA     24458       1    1317    1146    1318    1320
CTETRA     24459       1    1404    4955     954    1939
CTETRA     24460       1     939     212     883    1858
CTETRA     24461       1    1474    1148    1942    1760
CTETRA     24462       1    1144    1146    1147    5730
CTETRA     24463       1    1144    1145    1146    5730
CTETRA     24464       1    1005    2271    3644    1948
CTETRA     24465       1    1163    1948    1005    1936
CTETRA     24466       1    3647    1005    1948    1936
CTETRA     24467       1    3647    1010    3627    1005
CTETRA     24468       1    1005    3601    1010    3627
CTETRA     24469       1    1005     125     595     444
CTETRA     24470       1      40    1271     113     443
CTETRA     24471       1    1005    3644    2271    3654
CTETRA     24472       1    1964    2418    1010    3600
CTETRA     24473       1    2198    3973    2876    3974
CTETRA     24474       1    1771    2833    2634    3258
CTETRA     24475       1    2876    1344    2011    3084
CTETRA     24476       1     482    3015     489    1169
CTETRA     24477       1     544    1566    1887     928
CTETRA     24478       1     375    2651    5090    1890
CTETRA     24479       1     534    1181    2465    5099
CTETRA     24480       1    1579     534    1181    2465
CTETRA     24481       1    1686    1689    2209    1687
CTETRA     24482       1    2733    3740    3022    2391
CTETRA     24483       1    3022    1617     969    2733
CTETRA     24484       1    1102      58    1106    1757
CTETRA     24485       1    1142    1650    1643    1141
CTETRA     24486       1    1633    2878    1099    3737
CTETRA     24487       1    2531    3047    3082    2767
CTETRA     24488       1    2172    2173    4575    1983
CTETRA     24489       1    4575    2170    1983    2169
CTETRA     24490       1    2170    4576    2172    4567
CTETRA     24491       1    2170    1353    4566    4567
CTETRA     24492       1    4571    1353    2170    3041
CTETRA     24493       1    4580    1136    4581    4577
CTETRA     24494       1    2169    3041    4571    2170
CTETRA     24495       1     917    1009    1143     382
CTETRA     24496       1     577    1143    2171     918
CTETRA     24497       1    4575    2170    2172    1983
CTETRA     24498       1    2792    2541    4731     619
CTETRA     24499       1     619    2541    4731    1004
CTETRA     24500       1    4731    2796    4733    2541
CTETRA     24501       1    4732    2648    4686    2649
CTETRA     24502       1     807    1161     811     812
CTETRA     24503       1     120    2648    2541    2649
CTETRA     24504       1    1004    4731    4732    2541
CTETRA     24505       1    4741    1004    4731    4732
CTETRA     24506       1    2541    2649    4732    2685
CTETRA     24507       1    1935    4836    2945    4895
CTETRA     24508       1    1119    2796    2210     587
CTETRA     24509       1    2796    2210    4683    4684
CTETRA     24510       1    4734    2796    2792    4735
CTETRA     24511       1    2796     587    2890    4735
CTETRA     24512       1     780    2796    2792    2541
CTETRA     24513       1    2435    2151    1270     113
CTETRA     24514       1    2210    2993    4468    4685
CTETRA     24515       1     428     250    1209    2416
CTETRA     24516       1    2435    3466    3629     443
CTETRA     24517       1     444     595    3628    3602
CTETRA     24518       1     444     442    3629    3654
CTETRA     24519       1     120    1974    2541    2648
CTETRA     24520       1     735    3654      28     442
CTETRA     24521       1    2151    3807    2288    3468
CTETRA     24522       1    2150    2288    3468    2151
CTETRA     24523       1    2648    2796    4684    2210
CTETRA     24524       1    2648    2210    4684    4685
CTETRA     24525       1    2205    4373    4372    4371
CTETRA     24526       1    2647    2648    4686    4685
CTETRA     24527       1    2138    1696    2993     733
CTETRA     24528       1    2648    2541    4732    4733
CTETRA     24529       1     684    1152     685     743
CTETRA     24530       1    2860    2209    4908    4910
CTETRA     24531       1    2652    1152    2623    5089
CTETRA     24532       1    3944     543     928     544
CTETRA     24533       1    4842    2860    4910    2209
CTETRA     24534       1    2198    3974    3086    3971
CTETRA     24535       1    2011    1132    2198    3086
CTETRA     24536       1     813     679    2520     821
CTETRA     24537       1     846    2010    1295    1287
CTETRA     24538       1    2860    1908    4906    4908
CTETRA     24539       1     533     440     658    1181
CTETRA     24540       1     928     929    3936    2642
CTETRA     24541       1     388     536    2158     373
CTETRA     24542       1     170     375     390    1890
CTETRA     24543       1    3937    2185    3938    2184
CTETRA     24544       1     154    2052     658     155
CTETRA     24545       1     928     495    3936    3937
CTETRA     24546       1    1164     302    1165    1645
CTETRA     24547       1     757    3025    1695    3033
CTETRA     24548       1    2174    1247    1246    1248
CTETRA     24549       1    1789    2064    1233    3049
CTETRA     24550       1    1233    1644    3672    3839
CTETRA     24551       1    1233    3841    2276    3825
CTETRA     24552       1    1233    3826    2064    3839
CTETRA     24553       1    2287    2150    2151    2288
CTETRA     24554       1     121    2672    2671    2901
CTETRA     24555       1     816    2329    2330    1271
CTETRA     24556       1    1722    1721    3037    1155
CTETRA     24557       1    2329     816    2330     364
CTETRA     24558       1    1696    2478    1753    3017
CTETRA     24559       1     125     115     117     595
CTETRA     24560       1    2671    2649    4687    4686
CTETRA     24561       1    1721    1074    3088    2372
CTETRA     24562       1    2435     444    3629    3602
CTETRA     24563       1     113    2435    2151     444
CTETRA     24564       1     589     588    2287     771
CTETRA     24565       1     608    2208     600    2031
CTETRA     24566       1    4466    2372    3088    1074
CTETRA     24567       1    2647    2649    1074    4686
CTETRA     24568       1    2168    4921    2177    4901
CTETRA     24569       1    1074    3088    4635    4655
CTETRA     24570       1    2671    4655    1074    4686
CTETRA     24571       1     544    2184    3944    3945
CTETRA     24572       1    2652     740     685     743
CTETRA     24573       1    2158     388    3098    1765
CTETRA     24574       1    3951    3973    2898    2198
CTETRA     24575       1    2198    1132    3945    3971
CTETRA     24576       1    2037     894    2036     898
CTETRA     24577       1    2521     658     665     154
CTETRA     24578       1    3950    2898    3964    1764
CTETRA     24579       1    3066    3276    3277    5057
CTETRA     24580       1     807     806    1721    1155
CTETRA     24581       1     770     695     691    1544
CTETRA     24582       1    1005    1936    3647    1010
CTETRA     24583       1     114    1211     122     115
CTETRA     24584       1    1010     119      82    1964
CTETRA     24585       1     618    2541     619    1004
CTETRA     24586       1    3601    1010    1964     595
CTETRA     24587       1    3601    3628    1005     595
CTETRA     24588       1     650    3621    5276    5277
CTETRA     24589       1     666    3622    3619    3618
CTETRA     24590       1     666    3566    3618    3619
CTETRA     24591       1    2282    2284     667    2152
CTETRA     24592       1    2090     511    1293    1294
CTETRA     24593       1    1268    2168    4979    4977
CTETRA     24594       1    1167    1166    1009    2167
CTETRA     24595       1    2426    4527    4095    5795
CTETRA     24596       1    1447    2991    2918    1389
CTETRA     24597       1    1259    2246    1208    2077
CTETRA     24598       1    1692     824     353     637
CTETRA     24599       1     712     707    1650    1642
CTETRA     24600       1    1815    2761    2022    2784
CTETRA     24601       1     490     493    3085    2270
CTETRA     24602       1    1441    2415    5208    5233
CTETRA     24603       1    2407    1446    1442    1390
CTETRA     24604       1     846    1288    2010    1287
CTETRA     24605       1    2652    1278     335     685
CTETRA     24606       1     440    1181     533    5082
CTETRA     24607       1      62     304    1165    1009
CTETRA     24608       1     881    1633    2878    1099
CTETRA     24609       1    1633    1607    2733    1632
CTETRA     24610       1    1102    1103    1101    1107
CTETRA     24611       1    1101    1633    1099    3737
CTETRA     24612       1    3742    1632    1633    2733
CTETRA     24613       1    2733    3739    1633    3742
CTETRA     24614       1    1633    3739    2850    3737
CTETRA     24615       1    2733    2850    3739    2391
CTETRA     24616       1    3041    1355    2727    4577
CTETRA     24617       1    4571    2169    4572    1136
CTETRA     24618       1    4571    2169    2170    4572
CTETRA     24619       1    1635    3041    1136    2169
CTETRA     24620       1    2376    1218    2727     213
CTETRA     24621       1    2168    1266    4979    4901
CTETRA     24622       1    1136    4581    4577    2727
CTETRA     24623       1    2727    4488    4487     213
CTETRA     24624       1    1633    1632    3684    1101
CTETRA     24625       1    1228    3950    2898    3951
CTETRA     24626       1    1771     897    3255    3958
CTETRA     24627       1    1558    1205    2325    1704
CTETRA     24628       1    1764    1228    3950    2898
CTETRA     24629       1    2068    1774    2447    2075
CTETRA     24630       1     534    2465    5107    5099
CTETRA     24631       1    3045    5073     908    5077
CTETRA     24632       1     151    2970    2035    2781
CTETRA     24633       1    1429    1661     188    1589
CTETRA     24634       1     671     573     572    1031
CTETRA     24635       1    1988     447    1176    1987
CTETRA     24636       1    1459    1651    2856    2280
CTETRA     24637       1    2571    3103    2646    2377
CTETRA     24638       1    1433    2925    5158    1556
CTETRA     24639       1    1266     610    2741    2177
CTETRA     24640       1    5153    2856    5159    1430
CTETRA     24641       1     602    1268    2168    1266
CTETRA     24642       1    1433    1418    5156    5157
CTETRA     24643       1    1430    5157    5154    1419
CTETRA     24644       1    5159    5157    5154    1430
CTETRA     24645       1    1414    1415     669    1416
CTETRA     24646       1    1887     543     928     929
CTETRA     24647       1     156    2521    1522     627
CTETRA     24648       1     987     682     986     680
CTETRA     24649       1    1852    1908    4905    4906
CTETRA     24650       1    4295    2206    1853    4369
CTETRA     24651       1    4577    3041    1136    2727
CTETRA     24652       1    1954    2977    1985    2489
CTETRA     24653       1    2727    1346    4487    1355
CTETRA     24654       1    4577    2727    4488    4487
CTETRA     24655       1    2376    2727    3041    1355
CTETRA     24656       1    1531    1758    2469    1299
CTETRA     24657       1    2376    2727    1355    1346
CTETRA     24658       1    1101    2758    3748    1103
CTETRA     24659       1    1574    2436    2718    2512
CTETRA     24660       1     897    3960    2654    3243
CTETRA     24661       1    2868    5056    5109    5057
CTETRA     24662       1    3188    2068    2070     814
CTETRA     24663       1     171     659    1509     658
CTETRA     24664       1     894    1992    2037    2036
CTETRA     24665       1     627    5053    5073    3045
CTETRA     24666       1    1575    1573    1579    1343
CTETRA     24667       1    1286     725     813    2143
CTETRA     24668       1    1821    3240    1571    3239
CTETRA     24669       1     658     533    1181     534
CTETRA     24670       1    2053    2198     544    2898
CTETRA     24671       1    2184    1566     544     928
CTETRA     24672       1    1343     482     480     489
CTETRA     24673       1    2868    5061    1440    5056
CTETRA     24674       1     151     153     158    2970
CTETRA     24675       1     661     928    2642     929
CTETRA     24676       1     375     388     373     168
CTETRA     24677       1    1566    1508    1228    1887
CTETRA     24678       1    2157    1994    3461    3440
CTETRA     24679       1    4015    2780    2721    1223
CTETRA     24680       1    1067    3221    3220    3217
CTETRA     24681       1    2954    1043    4017    3100
CTETRA     24682       1    4014    2721    1030    1223
CTETRA     24683       1    1223    4011    2780    1744
CTETRA     24684       1     533     534    5099    1181
CTETRA     24685       1     533    1181    5099    5082
CTETRA     24686       1    2521    5083     534    5084
CTETRA     24687       1     374    5086     533    5087
CTETRA     24688       1    5082    2651     533     440
CTETRA     24689       1    2652    2623    5081    5089
CTETRA     24690       1     440    2624    5098    5081
CTETRA     24691       1     374    5085     373     375
CTETRA     24692       1     544    2198    3975    3951
CTETRA     24693       1    1228    2898     544    3951
CTETRA     24694       1    3936    3944     543     928
CTETRA     24695       1    2963    1994    3440    3439
CTETRA     24696       1     544    3975    2198    3945
CTETRA     24697       1     928    2184    3937    3944
CTETRA     24698       1    2184    1132    3945     544
CTETRA     24699       1     544    3945    2198    1132
CTETRA     24700       1     382     383    2912     911
CTETRA     24701       1     916    3079    2658    2401
CTETRA     24702       1    1983    1636    1634     877
CTETRA     24703       1    3684    3742    1632    1633
CTETRA     24704       1     816    1272     808     680
CTETRA     24705       1    1270    2151    2435    2885
CTETRA     24706       1    2635    4313    2963    4309
CTETRA     24707       1    3807    2885    3467    2151
CTETRA     24708       1    2435    3466     443    2330
CTETRA     24709       1    2435    3602    2151     444
CTETRA     24710       1    2435     443     444     113
CTETRA     24711       1    1630    1103    2328    2758
CTETRA     24712       1    2157    2613    3444    3441
CTETRA     24713       1    2126    2157    3444    2156
CTETRA     24714       1    3793    2851    1107    3748
CTETRA     24715       1    1101    3684    1633    3737
CTETRA     24716       1    2376    2727    1346     213
CTETRA     24717       1    1634    1983    1635    2169
CTETRA     24718       1    1629    1100    1101    1633
CTETRA     24719       1    1231    1220    1932     215
CTETRA     24720       1    1216    1136    1218    2729
CTETRA     24721       1    1099    3683    1107    1101
CTETRA     24722       1    3682    1099    3683    1107
CTETRA     24723       1     658    2521     533     534
CTETRA     24724       1     532    1921    3955    1228
CTETRA     24725       1     956     943    2840     523
CTETRA     24726       1    3064    1954    2977    1985
CTETRA     24727       1    1999    3941     927    3933
CTETRA     24728       1    1567     927    1901    2000
CTETRA     24729       1    2053    1228    2898     544
CTETRA     24730       1    2662    2655    4334    3449
CTETRA     24731       1     535     396     388    1626
CTETRA     24732       1     679     987    1269     680
CTETRA     24733       1    5086    5082    2651     533
CTETRA     24734       1     195    2861    2635    2226
CTETRA     24735       1    2652    5081     440    5088
CTETRA     24736       1    1090     904    5565    5566
CTETRA     24737       1    3218     226    3102    3227
CTETRA     24738       1     296     286     287     285
CTETRA     24739       1    2018    2431    5709    1795
CTETRA     24740       1    2018    1320    5709    5708
CTETRA     24741       1    1795    5710    1797    5711
CTETRA     24742       1    2232    2588    5576     499
CTETRA     24743       1    1525    1526    1528    1281
CTETRA     24744       1    1147    1940    5730    5913
CTETRA     24745       1    1847    2140     500    5906
CTETRA     24746       1     226    1222    3231    3217
CTETRA     24747       1    1799     586    1795    1320
CTETRA     24748       1    2238    2237    5723    5722
CTETRA     24749       1    1526    2113    5724    5723
CTETRA     24750       1     375     373    5052    5085
CTETRA     24751       1     375    5052     373     390
CTETRA     24752       1     375    1890    5095     390
CTETRA     24753       1     660     375    1890    2651
CTETRA     24754       1    5053     374    5085     373
CTETRA     24755       1    2646     776    1044    3102
CTETRA     24756       1    5086     374    5085    5087
CTETRA     24757       1     165     164    1567    1888
CTETRA     24758       1     665     374     375    2651
CTETRA     24759       1     375    1890    5090    5095
CTETRA     24760       1    1887    1921     543     929
CTETRA     24761       1     626    5072     476     908
CTETRA     24762       1     168     374     375     665
CTETRA     24763       1     896    2033     931     927
CTETRA     24764       1    2654    3952    3962    3960
CTETRA     24765       1    2833    1705    3245    3244
CTETRA     24766       1    2325    1707    2634    1558
CTETRA     24767       1    1771     897    1792    2833
CTETRA     24768       1    1771    1792     897    3958
CTETRA     24769       1     159    1704    3246    3282
CTETRA     24770       1     893    1992    2528    2037
CTETRA     24771       1    2004    3244    3243    3268
CTETRA     24772       1    2004    2005    3272    3268
CTETRA     24773       1    1921     927    3957    3942
CTETRA     24774       1     893    2029    2028    2528
CTETRA     24775       1    2868    5057    2040    5061
CTETRA     24776       1     891     898     894     893
CTETRA     24777       1     226    1044    3218    3102
CTETRA     24778       1    2954    4020    2879    3222
CTETRA     24779       1     908    5077     909     536
CTETRA     24780       1    5076     908    5077     909
CTETRA     24781       1    3045     536     373    5077
CTETRA     24782       1     476     475     477    2082
CTETRA     24783       1    5052     373    2158    5077
CTETRA     24784       1    2883    3279     158    3274
CTETRA     24785       1    2040    3278    3277    3275
CTETRA     24786       1    1440    5061    5063    5056
CTETRA     24787       1    2052    3009     534    2456
CTETRA     24788       1    1440    1522    5055     627
CTETRA     24789       1    2426    2731    4112    2732
CTETRA     24790       1    2019     626    1440    5060
CTETRA     24791       1    5084    2521    1522     534
CTETRA     24792       1    5100    5084    1522     534
CTETRA     24793       1    1705     161    1704     159
CTETRA     24794       1    2719    3066    2868    5112
CTETRA     24795       1    1204    3066    2719    2896
CTETRA     24796       1    1522     627    5054    5055
CTETRA     24797       1    2521     533     534    5083
CTETRA     24798       1    3041    4565    1353    1355
CTETRA     24799       1    3041    1355    4577    4565
CTETRA     24800       1    2376    1136    3041    2727
CTETRA     24801       1    4566    4571    1353    2170
CTETRA     24802       1    3951    3943     544    1228
CTETRA     24803       1    1224    1030    4014    4019
CTETRA     24804       1    2324     362    1098     985
CTETRA     24805       1     374     533    5086    2651
CTETRA     24806       1     537     627    3045     373
CTETRA     24807       1     374    5086     375    2651
CTETRA     24808       1     543     929    3942    3935
CTETRA     24809       1    1921     543    3942    3943
CTETRA     24810       1    1921    3955    1228    3943
CTETRA     24811       1    1901     927    3942    3934
CTETRA     24812       1    2328    1103    2851    2701
CTETRA     24813       1    1103    1629    1630    1105
CTETRA     24814       1     554    2527     556      47
CTETRA     24815       1     345     344    1195    1354
CTETRA     24816       1    3748    2758    2701    1103
CTETRA     24817       1    4022    4014    2721    1030
CTETRA     24818       1    3684    1101    2758    3748
CTETRA     24819       1     157    1704     159     162
CTETRA     24820       1    1992    2037    3262    3261
CTETRA     24821       1     156     162    1522     154
CTETRA     24822       1     532    1921     927    3957
CTETRA     24823       1    2954    4017    1043    4018
CTETRA     24824       1    1887    1508    1921    1507
CTETRA     24825       1     532    3955    1921    3957
CTETRA     24826       1     537    3045     536     373
CTETRA     24827       1     193    1436     958    2108
CTETRA     24828       1    1559    2070    2068    1561
CTETRA     24829       1    1901    3927    2641    3926
CTETRA     24830       1    3045     536    5077     908
CTETRA     24831       1     626     908    5073    5072
CTETRA     24832       1    3045     373    5053    5077
CTETRA     24833       1    5054     627    5053    5073
CTETRA     24834       1    1901     929    3935    3942
CTETRA     24835       1    3927     929    3935    1901
CTETRA     24836       1    1901    3926    2641    2000
CTETRA     24837       1    1901    1921    3942     927
CTETRA     24838       1    2854    1581    1582    1580
CTETRA     24839       1    5083     533    5087    2521
CTETRA     24840       1     374    5054     627    5053
CTETRA     24841       1    5084    2521    5087    5054
CTETRA     24842       1    2521    5087    5054     374
CTETRA     24843       1    2569    1720    1583    1719
CTETRA     24844       1    2375    5378    5374    5377
CTETRA     24845       1    1425    1577    1628    2215
CTETRA     24846       1     431    3531    5843    3497
CTETRA     24847       1    1551    1800    4238    1803
CTETRA     24848       1    2142     904    5519    5518
CTETRA     24849       1    2092     312    1089    1482
CTETRA     24850       1    1368    5464    2195    5440
CTETRA     24851       1    1781    2135    5516    5539
CTETRA     24852       1    1465    5522    1482    5499
CTETRA     24853       1     206    5425    5424    5448
CTETRA     24854       1     616    1365    2254    1363
CTETRA     24855       1     675     572     581    4027
CTETRA     24856       1    2498    5425    5449    5426
CTETRA     24857       1    1776     551    1777    5491
CTETRA     24858       1    2135    1926    5540    5539
CTETRA     24859       1    2135    2043    5541    5540
CTETRA     24860       1    1886    1437    4316    4314
CTETRA     24861       1    1784    2043    2135    1926
CTETRA     24862       1    2091    1467    1466     550
CTETRA     24863       1    1925    1927    2141    1784
CTETRA     24864       1     956    2904     958    2029
CTETRA     24865       1    2093    1927    2096    2100
CTETRA     24866       1    5585    1926    5586    1356
CTETRA     24867       1    2142     904    5518    5541
CTETRA     24868       1    1925    1786    1926    1784
CTETRA     24869       1    2141    2096    1927    2100
CTETRA     24870       1    1090     904    5543    5544
CTETRA     24871       1    2043    1926    1931    5564
CTETRA     24872       1    1525     314     316    1527
CTETRA     24873       1    1467    5516    2135    5517
CTETRA     24874       1    2588     499    5574    5575
CTETRA     24875       1    2800    2861    2108    4311
CTETRA     24876       1    2139    2960    5504    5528
CTETRA     24877       1    1925    2043    1926    1931
CTETRA     24878       1    2140    2588    5574    5597
CTETRA     24879       1    2960    2243    5528    2139
CTETRA     24880       1    2431    2588    5597    1795
CTETRA     24881       1    2588    5597    1795    5598
CTETRA     24882       1    2588    1795    5599    5598
CTETRA     24883       1    2618    2960    2099    2098
CTETRA     24884       1    2269    2098    2099    2960
CTETRA     24885       1    1089     598     596     597
CTETRA     24886       1    2426    2909    4112    4111
CTETRA     24887       1    2253    1365     616    2092
CTETRA     24888       1    2092    1465     616    1466
CTETRA     24889       1    2226    2668    4300    4307
CTETRA     24890       1    2426    4112    2731    4096
CTETRA     24891       1    1490    1493    2099    1778
CTETRA     24892       1    2092    2093    2097     598
CTETRA     24893       1    2668     191    2226    1682
CTETRA     24894       1    5533    2196    5532    2955
CTETRA     24895       1    1088     596    1087    5546
CTETRA     24896       1    1925    1928    2043    1931
CTETRA     24897       1    1088     596     315    2042
CTETRA     24898       1    1785    2199    2196    1920
CTETRA     24899       1    2098    2243    2960    2139
CTETRA     24900       1    1776    1781    5514    1779
CTETRA     24901       1    2668    2226    4300    1682
CTETRA     24902       1    1375    5414    5438    5415
CTETRA     24903       1    2051    2482     642    2610
CTETRA     24904       1    5528    2243    5552    2139
CTETRA     24905       1    2050    2427    4421    4414
CTETRA     24906       1    2098    2243    2139     499
CTETRA     24907       1    5902    2862    5481     259
CTETRA     24908       1     500    2139    5551     499
CTETRA     24909       1    2960    5529    5505    5528
CTETRA     24910       1    5531    2243    5507    2618
CTETRA     24911       1    2091    2043     312     904
CTETRA     24912       1    2100     597    1929     500
CTETRA     24913       1    5504    2139    5527     259
CTETRA     24914       1     259    2960    5504    2139
CTETRA     24915       1     259    2862    1848     598
CTETRA     24916       1    1488    1778    2096    1782
CTETRA     24917       1    2043    5564    1931    5565
CTETRA     24918       1    5588    2044    1931    5565
CTETRA     24919       1    1786    5538    5562    1781
CTETRA     24920       1     904     615    5520    1465
CTETRA     24921       1    1088     312     311    1089
CTETRA     24922       1    1922     499    2098    2100
CTETRA     24923       1    2043    1926    5540    2135
CTETRA     24924       1    2142    2135    5518    5517
CTETRA     24925       1    2499    1788    3328    5420
CTETRA     24926       1    2366    3336    3323    3322
CTETRA     24927       1    2365    3338    3324    3323
CTETRA     24928       1    5442    5419    2045    1367
CTETRA     24929       1    5442    2045    5466    2195
CTETRA     24930       1     552     203     206    5448
CTETRA     24931       1    3042    2481    4423     141
CTETRA     24932       1    5507    2960    5506    2392
CTETRA     24933       1    1374    5483    2392    5484
CTETRA     24934       1    2499    3328    1788    3322
CTETRA     24935       1    1788    5444    5420    2045
CTETRA     24936       1    5444    5445    1494    1788
CTETRA     24937       1    5512    1779    5536    2199
CTETRA     24938       1    5541     904    5565    2043
CTETRA     24939       1     205    1494     206    1487
CTETRA     24940       1    2097    2092     598    1482
CTETRA     24941       1    2622    2508    3310    3335
CTETRA     24942       1    2342    2509    1483    5454
CTETRA     24943       1    1482    5475    5499    5476
CTETRA     24944       1    5429    3346    3348    1483
CTETRA     24945       1    2045    1376    2195    1367
CTETRA     24946       1    2482    4429    2610    4432
CTETRA     24947       1    2392    2349    1374    2269
CTETRA     24948       1    1922    1929    2141     294
CTETRA     24949       1    2556    2557    2379    2790
CTETRA     24950       1     141    4421    2482    4422
CTETRA     24951       1    1490    1493    1376    1373
CTETRA     24952       1    1779    2955    2199    5512
CTETRA     24953       1    1487     551     205    1494
CTETRA     24954       1     204     205     206    1487
CTETRA     24955       1    2140    5907    5596    5906
CTETRA     24956       1    1781    1784    1782    2135
CTETRA     24957       1    1777    1779    5489    2837
CTETRA     24958       1    2050     141    4421    2482
CTETRA     24959       1    2214     905    3993    2591
CTETRA     24960       1    1785    1779    5536    5537
CTETRA     24961       1    1777    5489    1779    5490
CTETRA     24962       1    1779    2837    5512    5489
CTETRA     24963       1    2098    2243    2197    2618
CTETRA     24964       1    1622    1925    1356    1623
CTETRA     24965       1     314    1090    5590    5567
CTETRA     24966       1     500    5906    1848    1847
CTETRA     24967       1    2431    5907    5596    2140
CTETRA     24968       1    1930    1931    5610    5611
CTETRA     24969       1    5708    2018    1147    2431
CTETRA     24970       1    1712     131    2055    2611
CTETRA     24971       1     285    1623     291     294
CTETRA     24972       1    5609    5586    5610    1930
CTETRA     24973       1    2042     314     315    1090
CTETRA     24974       1    2232    2588    1620    1794
CTETRA     24975       1    1356    1358     285    1941
CTETRA     24976       1    1090     312     904    5544
CTETRA     24977       1    1940    5617    1847    5616
CTETRA     24978       1    1356    5721    1358    2238
CTETRA     24979       1    2194    3997    4006    1036
CTETRA     24980       1    2140    5574    2588     499
CTETRA     24981       1     941    5721    2237    1358
CTETRA     24982       1    1786    5583    1356    5584
CTETRA     24983       1    1786    1785    1920    5536
CTETRA     24984       1    1794     287    5602    1793
CTETRA     24985       1       2     128     988     131
CTETRA     24986       1    2447    1774     907    1764
CTETRA     24987       1    1525    5614     314    5613
CTETRA     24988       1    2018    1147    1940     292
CTETRA     24989       1    1848    5550    2139    5527
CTETRA     24990       1     906    3997    2214    3992
CTETRA     24991       1    2196    1920    5535    5558
CTETRA     24992       1    1373    2099    2618    2392
CTETRA     24993       1    1562     907     906     905
CTETRA     24994       1    2618    5484    2392    5507
CTETRA     24995       1    2392    2618    5507    2960
CTETRA     24996       1    5506    5529    5505    2960
CTETRA     24997       1    1373    2955    2099    2837
CTETRA     24998       1    5511    2955    2199    5534
CTETRA     24999       1    5511    2955    5488    5512
CTETRA     25000       1    2196    5534    2955    5533
CTETRA     25001       1    1779    2955    5512    2837
CTETRA     25002       1    1377    2955    1373    2837
CTETRA     25003       1    2955    2837    5487    5488
CTETRA     25004       1    2955    5488    5512    2837
CTETRA     25005       1    1186    1431    1416    1187
CTETRA     25006       1    2455    5103    2526    5104
CTETRA     25007       1    2859    1904    2539    1222
CTETRA     25008       1    2507    5122    2717    1169
CTETRA     25009       1     672     226     227    2646
CTETRA     25010       1    1039    1223    4010    4014
CTETRA     25011       1    1015    2457    1039    1744
CTETRA     25012       1    2954    1044    1043    3100
CTETRA     25013       1    2525    2540    2430    2459
CTETRA     25014       1    2489    1330    1329    2985
CTETRA     25015       1    1044    1067    3218    3221
CTETRA     25016       1    2476    1882    2362    1406
CTETRA     25017       1    2242    2637    1540    4744
CTETRA     25018       1    1406     798    4715    4712
CTETRA     25019       1    3359    3410     633    3358
CTETRA     25020       1     265     817     818     264
CTETRA     25021       1    4750    2637    4749    4743
CTETRA     25022       1     260     264    5278    5266
CTETRA     25023       1    1905    2539    1904    2261
CTETRA     25024       1    3083    1379    1988    1987
CTETRA     25025       1    1745     271    1747     270
CTETRA     25026       1    2134    1572    2261    3230
CTETRA     25027       1    1904    3229    3230    2261
CTETRA     25028       1    3229    3230    3234    1222
CTETRA     25029       1    2823    1040    3199    3215
CTETRA     25030       1    2954    2879    1067    3222
CTETRA     25031       1    3229    1222    3233    2539
CTETRA     25032       1      99    2310    1807    1384
CTETRA     25033       1    2829    1902    1222    3230
CTETRA     25034       1      99    2309    2310    1384
CTETRA     25035       1    1041    3223    3224    3201
CTETRA     25036       1    1909    2507    2717    1169
CTETRA     25037       1    2459    2261    1905    1572
CTETRA     25038       1    1909    2506    2526    2507
CTETRA     25039       1    1909    1876    2023    1663
CTETRA     25040       1    1876    5131    2831    2830
CTETRA     25041       1     237    2506    1876    5138
CTETRA     25042       1     237    1876    1663    5137
CTETRA     25043       1    1876    2830    5137    5131
CTETRA     25044       1    1082    2417    2021    2450
CTETRA     25045       1    2513    3061    1180    2398
CTETRA     25046       1    1959    1257    2227    1960
CTETRA     25047       1    1703    2784    1966    2523
CTETRA     25048       1     353    2936    1258    1443
CTETRA     25049       1    1179    1182    3486    1178
CTETRA     25050       1    2513    1836    2763    2959
CTETRA     25051       1    2450    2395    5349    5348
CTETRA     25052       1    1684    1828    1683    1685
CTETRA     25053       1    4182     974    2606    2582
CTETRA     25054       1    1229    4276    1615    1230
CTETRA     25055       1     976    1230     974    2957
CTETRA     25056       1    2594    2564    4614    4631
CTETRA     25057       1    2871    1243    2873    1244
CTETRA     25058       1    1683    1600    1300    1828
CTETRA     25059       1    2889    2452    4176     323
CTETRA     25060       1    2553    1076    1226     545
CTETRA     25061       1    2277     101     102    2712
CTETRA     25062       1    2359    1514    3988    2369
CTETRA     25063       1    2946    1837    1762    2959
CTETRA     25064       1    1077    1834    1080    1079
CTETRA     25065       1     219     224    1763    1080
CTETRA     25066       1    2587    2938    5311    5402
CTETRA     25067       1    3057    3485    5849    5342
CTETRA     25068       1    2936    1444     353    5347
CTETRA     25069       1    2489    1985    1330    2985
CTETRA     25070       1     697    2694    2124    2123
CTETRA     25071       1    2778    4651    2434    4652
CTETRA     25072       1    1618    4246    1612    4240
CTETRA     25073       1    2942    5388    5392    5395
CTETRA     25074       1    1547    3516    2424    3535
CTETRA     25075       1    1464    2937    2600    1803
CTETRA     25076       1    2682    3515    2424    3520
CTETRA     25077       1    1046    1049    1056    1047
CTETRA     25078       1     263     993    1052    2131
CTETRA     25079       1      88    1861    2250    2249
CTETRA     25080       1    1055    1524    5242    5255
CTETRA     25081       1    1052     652    1053    5218
CTETRA     25082       1    5166    2081     412    2535
CTETRA     25083       1    1723    1328    1724    1726
CTETRA     25084       1    1820    3192    1572    3191
CTETRA     25085       1    1584    1821    1820    1571
CTETRA     25086       1    2069    4009    2194    3996
CTETRA     25087       1    2489    2981    2980    2977
CTETRA     25088       1    1790    1586    3239    3238
CTETRA     25089       1    1572    3198    2261    3230
CTETRA     25090       1     906    1774    3964     907
CTETRA     25091       1    2526    2507    5120    2717
CTETRA     25092       1    2506    5133    2507    5132
CTETRA     25093       1    2430    2459    3193    3196
CTETRA     25094       1    2507    5131    1876    5132
CTETRA     25095       1    1909    2507    1169    2831
CTETRA     25096       1    1033    1658     672    1904
CTETRA     25097       1    2310    3168    1384    3163
CTETRA     25098       1    1658     211    1877    1874
CTETRA     25099       1     424     632     722     633
CTETRA     25100       1    1715    5288    5287    5307
CTETRA     25101       1     265     817     264     260
CTETRA     25102       1     264     993    5279    5280
CTETRA     25103       1     258    1717    1007     257
CTETRA     25104       1     649     209    1857    2114
CTETRA     25105       1    2602    1592     663    2958
CTETRA     25106       1    2353    4119    2370    4107
CTETRA     25107       1    1072    2550    2556    2558
CTETRA     25108       1    1141    2766     549     546
CTETRA     25109       1     712    1137    1646    2494
CTETRA     25110       1     707    1142    1165    1166
CTETRA     25111       1    2714    2422     542    2712
CTETRA     25112       1     524    3043     526     923
CTETRA     25113       1    2306    1822    2146    2308
CTETRA     25114       1     322     923    3043    2996
CTETRA     25115       1    4031     572     567    1075
CTETRA     25116       1     890    2853    2995    1454
CTETRA     25117       1     410    2378    5186    2714
CTETRA     25118       1    2144    2572    2308    1822
CTETRA     25119       1    1452     371      97     372
CTETRA     25120       1    2734    3177    3172    3173
CTETRA     25121       1    1814    3161    3166    3162
CTETRA     25122       1    2111    2047    2363    2204
CTETRA     25123       1    2112    1973    4725    4727
CTETRA     25124       1    2112    4676    4727    4724
CTETRA     25125       1    2801    2811    4419    4426
CTETRA     25126       1    1144    1474    1148     280
CTETRA     25127       1    2051    2480    2482    2610
CTETRA     25128       1    2336    4440    2338    2049
CTETRA     25129       1    2340    1319    3363    3390
CTETRA     25130       1    2547      34    4063    4064
CTETRA     25131       1    1531    1333    1757    1299
CTETRA     25132       1    1954     727     731     728
CTETRA     25133       1    2657    4224    1970    4233
CTETRA     25134       1    1757    1333    1285    1299
CTETRA     25135       1    1220     215    1216    2376
CTETRA     25136       1    1812    2547      34    4063
CTETRA     25137       1    2310    3167    1807    3168
CTETRA     25138       1    1617    3022    2496    2390
CTETRA     25139       1    1157    1114    1115     915
CTETRA     25140       1     718    2452    2546     861
CTETRA     25141       1    2440    2452    4176    4166
CTETRA     25142       1    2212    4142    3043    4140
CTETRA     25143       1    1553    2867    2667    2666
CTETRA     25144       1     320    2440    2452     323
CTETRA     25145       1     321    2889    2452     861
CTETRA     25146       1    1817    4578    4556    4555
CTETRA     25147       1    1533    1530    4234    4227
CTETRA     25148       1    1533    2469    4227    3014
CTETRA     25149       1    2469    1530    4227    4226
CTETRA     25150       1    1531    1532    1530    1758
CTETRA     25151       1    1300    4211    3014    4212
CTETRA     25152       1    2932     942    2025     941
CTETRA     25153       1     895     475     901     535
CTETRA     25154       1     892    2191    2034    2000
CTETRA     25155       1    2033     522    1999    2000
CTETRA     25156       1     164     484    2641     791
CTETRA     25157       1    2969    2970    3291    3293
CTETRA     25158       1    2131     993    5281    5279
CTETRA     25159       1    1052    1054    5218    1053
CTETRA     25160       1    1052    1050    1054    1053
CTETRA     25161       1    2863    2248    5261    2844
CTETRA     25162       1     267     884     953     940
CTETRA     25163       1    1259    2245    1860    2250
CTETRA     25164       1    1052    5281    2131     993
CTETRA     25165       1    1052    5218    1054    5281
CTETRA     25166       1    1163    1005    1948    2271
CTETRA     25167       1     421     429     426     274
CTETRA     25168       1    1408    2477    4709    4708
CTETRA     25169       1    1047    2475    1292    1293
CTETRA     25170       1    1412     264    5279    5278
CTETRA     25171       1     424    1934     722     683
CTETRA     25172       1    1408     798    4709     796
CTETRA     25173       1     926     323     922    4127
CTETRA     25174       1    2683    3921    2439    2083
CTETRA     25175       1    2948    1806    2995    3137
CTETRA     25176       1     322    1276     320    2440
CTETRA     25177       1     321    2666    2889     861
CTETRA     25178       1    1769    4144    4140    4143
CTETRA     25179       1     714    1069     720    1669
CTETRA     25180       1     919     920     922    2889
CTETRA     25181       1     924     322     926     923
CTETRA     25182       1    1391    3159    1387    3160
CTETRA     25183       1    1810    1384    1387    3164
CTETRA     25184       1    1766    1769    2542    1770
CTETRA     25185       1    1807    3165    1387    3164
CTETRA     25186       1    1553    2934    3016    2835
CTETRA     25187       1    2950    1814    5205    1813
CTETRA     25188       1    1492    3120    2645    3119
CTETRA     25189       1     919     925     926    1485
CTETRA     25190       1    2975    1810    3153    1806
CTETRA     25191       1    2084     890     933    1454
CTETRA     25192       1     371    2129    1452    2870
CTETRA     25193       1     926     924     919     323
CTETRA     25194       1    2935    2998    3157    3152
CTETRA     25195       1    2935    3163    1384    3158
CTETRA     25196       1    1806    2935    3152    2998
CTETRA     25197       1    2306    1384    2309    2935
CTETRA     25198       1    1822    2998    3146    3157
CTETRA     25199       1     889    1810    2975    1806
CTETRA     25200       1    2542    3113    3126    3112
CTETRA     25201       1     890    2853    2948    2995
CTETRA     25202       1    1822    2998    3003    3146
CTETRA     25203       1    1252    1546    2906    2937
CTETRA     25204       1     255    2387    1843    1462
CTETRA     25205       1    1889    2215    2942    5362
CTETRA     25206       1    1804    1800    1803    4289
CTETRA     25207       1    1577    5369    1628    5361
CTETRA     25208       1     263    1052     252     947
CTETRA     25209       1    1592     425    2602     663
CTETRA     25210       1     260     264    5266    5267
CTETRA     25211       1    1474    1760    1478    1148
CTETRA     25212       1    2602    2500    1914     842
CTETRA     25213       1     261     624     623    2775
CTETRA     25214       1    1207     429    2346    1936
CTETRA     25215       1     794    2633    1846     368
CTETRA     25216       1     558     125    1163     735
CTETRA     25217       1    2775     617    5290    5289
CTETRA     25218       1    2775     623     617    5289
CTETRA     25219       1    1836    2513    1307    2322
CTETRA     25220       1    1864    1461    1463    1866
CTETRA     25221       1    2519    4674    4675    4478
CTETRA     25222       1    1183    1178    3553    3487
CTETRA     25223       1    1834    2417    2771    2021
CTETRA     25224       1    2112    2048    2519    2111
CTETRA     25225       1     300     298     299     308
CTETRA     25226       1    3044    2215    5360    5400
CTETRA     25227       1    3044    1899    5400    5406
CTETRA     25228       1    3044    5400    1899    2215
CTETRA     25229       1     719    2546    4177     861
CTETRA     25230       1    2437    3874    2439    3875
CTETRA     25231       1    2546    4177     861    4173
CTETRA     25232       1    1117    2546    4173    4165
CTETRA     25233       1    2360    1159    4178    4164
CTETRA     25234       1    2360    2546    1117    4165
CTETRA     25235       1    1072    1162    2558    2551
CTETRA     25236       1     720     719    2546    1159
CTETRA     25237       1    1862    1724    2078    2794
CTETRA     25238       1     666    2795    3619    2839
CTETRA     25239       1    2844    2864    5253    5254
CTETRA     25240       1    2152     650    2282    2283
CTETRA     25241       1    1056    1055    1053    2864
CTETRA     25242       1    1055    5238    2864    5254
CTETRA     25243       1    2582    1830    4182     974
CTETRA     25244       1    1804    4289    1803    4288
CTETRA     25245       1    1802    1800    4289    4266
CTETRA     25246       1    1062    2402    2408    4269
CTETRA     25247       1    2778    4652    4633    4651
CTETRA     25248       1    2517    4652    4672    4653
CTETRA     25249       1    2688     622    3416    1469
CTETRA     25250       1    2808    1469    3412    2592
CTETRA     25251       1      24    1007    1981    1846
CTETRA     25252       1    1996     368    3048     365
CTETRA     25253       1    2048    2599    2336    2519
CTETRA     25254       1    2069    3947    2073    3187
CTETRA     25255       1    2073    5633    3187    3947
CTETRA     25256       1    2073    3187    5633    3235
CTETRA     25257       1    2336    2049    2114    4439
CTETRA     25258       1    1572    3199    2134    1571
CTETRA     25259       1    1771    3235    2073    3959
CTETRA     25260       1    1790    2325    1586    3238
CTETRA     25261       1     906    3992    2214     905
CTETRA     25262       1     906    1774    3991    3964
CTETRA     25263       1     151     158     159    2036
CTETRA     25264       1    1204    2888    2896    1821
CTETRA     25265       1    1584    1586    1821    1571
CTETRA     25266       1     649    2048    2049    2336
CTETRA     25267       1    3193    2430    3194    2540
CTETRA     25268       1    1086    1743    1739    1183
CTETRA     25269       1    1086    2817    1084    2819
CTETRA     25270       1    1900    2942    1899    5389
CTETRA     25271       1    2871    1243    1255    2873
CTETRA     25272       1     974    2957    4285    4284
CTETRA     25273       1    1684    1831     975    1829
CTETRA     25274       1    4203    1828    4202    1827
CTETRA     25275       1    1230     974    2957    4285
CTETRA     25276       1    2564    4631    2223    4632
CTETRA     25277       1    2957    1804    4287    4286
CTETRA     25278       1    2434    4650    2224    4670
CTETRA     25279       1    2517    4652    2434    4671
CTETRA     25280       1    2223    2218    4649    4631
CTETRA     25281       1    2048    2338    2610    2049
CTETRA     25282       1    4650    2224    2219    2223
CTETRA     25283       1    2223    4649    2218    2219
CTETRA     25284       1    2220    2224    2223    2219
CTETRA     25285       1    2607    2563    2783    2609
CTETRA     25286       1    2594    2564    4631    2502
CTETRA     25287       1     774     775     773    3071
CTETRA     25288       1    1830     980    1615     974
CTETRA     25289       1    2871    1229    1244    1615
CTETRA     25290       1    2503    3071    2504    2595
CTETRA     25291       1    1831    2846    2565    2596
CTETRA     25292       1     655    2479    2603    2109
CTETRA     25293       1      18    2593    2592    2335
CTETRA     25294       1     653     654    4445    5836
CTETRA     25295       1    1388    1947    1002    5303
CTETRA     25296       1    4446    2603     654     653
CTETRA     25297       1     283     131     318    2994
CTETRA     25298       1    1845    1592     425    2602
CTETRA     25299       1     210    1857     209    2114
CTETRA     25300       1    2335    2593    3417    3401
CTETRA     25301       1    3428    2335    3427    2334
CTETRA     25302       1      26    1475      25      19
CTETRA     25303       1    2581    2412    4196    4198
CTETRA     25304       1    1236     418    1684    1831
CTETRA     25305       1    2596    4560    4492    4561
CTETRA     25306       1    1884    1828    4213    4203
CTETRA     25307       1     469     415    2221     994
CTETRA     25308       1    1829    1884    1830    1684
CTETRA     25309       1    2846    4492    4598    4493
CTETRA     25310       1    2582    4182    4181    2606
CTETRA     25311       1    1884    4203    1827    1828
CTETRA     25312       1    1335    1916    2874    2124
CTETRA     25313       1    1830    4285    4183    4182
CTETRA     25314       1    3146    2306    3186    2308
CTETRA     25315       1    3003    3146    2998    3151
CTETRA     25316       1    1822    3003    2308    3146
CTETRA     25317       1    1457    1583    1823    1718
CTETRA     25318       1     719    4177    2546    4178
CTETRA     25319       1     716    2663     719    1123
CTETRA     25320       1      98    2063    2723    2061
CTETRA     25321       1    1073    2551    4101    1124
CTETRA     25322       1    2812     861    4177    4157
CTETRA     25323       1     719    1159    4072    4178
CTETRA     25324       1     713      94      93      98
CTETRA     25325       1     731    2489    1329     337
CTETRA     25326       1    2956    5336    5846    5309
CTETRA     25327       1    1700    2067    1702    2523
CTETRA     25328       1    1739    1740    1741    2738
CTETRA     25329       1    2765    2107    3510    2764
CTETRA     25330       1    1761    2946    3508    3498
CTETRA     25331       1    2102    2942    1896    2583
CTETRA     25332       1    2957     976     996     977
CTETRA     25333       1    1899    1897    1898    1900
CTETRA     25334       1    2764    3493    2383    2425
CTETRA     25335       1    2107    2425    3516    3494
CTETRA     25336       1    2738    1740    3506    3505
CTETRA     25337       1    2764    2383    3493    3509
CTETRA     25338       1    1738    2424    2107    2425
CTETRA     25339       1    1736    2586    2583    1900
CTETRA     25340       1    2264    2630    2628    2798
CTETRA     25341       1    2264    2616    1125    2628
CTETRA     25342       1    1124    1123    1159    4091
CTETRA     25343       1     553     549    2368    2766
CTETRA     25344       1    2681     921    2384     933
CTETRA     25345       1     720    1123     719    1159
CTETRA     25346       1     913    4513    4510    4514
CTETRA     25347       1    1069    1124    1123    1159
CTETRA     25348       1    1141    1617    2496    2390
CTETRA     25349       1    2265    2389    2798    2263
CTETRA     25350       1    2797    2263    4118    4123
CTETRA     25351       1    2389    4105    2798    4118
CTETRA     25352       1    2386    2630    2736    4079
CTETRA     25353       1    2248    2247    5260    2844
CTETRA     25354       1    2250    2245    2248    2247
CTETRA     25355       1    5256    2863    5257    5261
CTETRA     25356       1    2843    2247    5224    2842
CTETRA     25357       1    1862    2247    2843    2842
CTETRA     25358       1    2843    2247    5260    5224
CTETRA     25359       1    2843    2844    2807    5225
CTETRA     25360       1    2807    5225    2844    5253
CTETRA     25361       1    1150     806    1198    2847
CTETRA     25362       1    1704    3251    3247    2888
CTETRA     25363       1    1790    3239    1571    3190
CTETRA     25364       1    1573    2718    2456    2455
CTETRA     25365       1    2023    1876    2830    1663
CTETRA     25366       1    2719    5112    5109    5110
CTETRA     25367       1     159    3246    1705    3281
CTETRA     25368       1    2719    2456    5110    5108
CTETRA     25369       1    3050    2877    3051    4190
CTETRA     25370       1    3014    1685    1828    1884
CTETRA     25371       1    1533     755    4228    4229
CTETRA     25372       1    4564     773    3058     775
CTETRA     25373       1    3058    3059    2729    4579
CTETRA     25374       1    2938    5402    1897    2561
CTETRA     25375       1    5333    5332    5313    1081
CTETRA     25376       1    5403    2560    2559    1081
CTETRA     25377       1    2938    5403    1081    5312
CTETRA     25378       1    2933    5336    5335    5343
CTETRA     25379       1    1084    5334    1081    5333
CTETRA     25380       1    2799    4825    5398    5399
CTETRA     25381       1    1082    2417    2450    1083
CTETRA     25382       1    1082    2417    1083    1081
CTETRA     25383       1    1123    1159    4091    4072
CTETRA     25384       1    1123     719    4072    4071
CTETRA     25385       1    1898    2938    1897    2561
CTETRA     25386       1    1885    2938    2561    1081
CTETRA     25387       1    2938    5402    2561    5403
CTETRA     25388       1    2940    2938    5312    5311
CTETRA     25389       1    2938    1081    5403    2561
CTETRA     25390       1    5402    1897    5401    2587
CTETRA     25391       1     698    2382    2695    2425
CTETRA     25392       1     963    2561    1898    1897
CTETRA     25393       1    1461    1866    1864    1865
CTETRA     25394       1    1856     617     623    5305
CTETRA     25395       1     842     617    5291     260
CTETRA     25396       1     643    2610    2048    2047
CTETRA     25397       1     617     260    5290    5291
CTETRA     25398       1     617     623    5305    5289
CTETRA     25399       1    1946    2810    2117    3421
CTETRA     25400       1    2943    4505    4516    3013
CTETRA     25401       1    2739    2769    3709    3698
CTETRA     25402       1    2385    2386    2601    2670
CTETRA     25403       1    2790    2557    4114    4115
CTETRA     25404       1    1125    1123    4091    4092
CTETRA     25405       1    2630    4104    2628    4117
CTETRA     25406       1    2551    2798    2628    4116
CTETRA     25407       1    1124    4101    1073    1125
CTETRA     25408       1    2628    4116    2798    4117
CTETRA     25409       1    2628    1125    4101    4102
CTETRA     25410       1    1162    2433    4089    2551
CTETRA     25411       1    1616    3005    2789     384
CTETRA     25412       1    2616    4103    1125    4102
CTETRA     25413       1    1073     309    2264    2628
CTETRA     25414       1      72     553    2529    2531
CTETRA     25415       1    2791    2621    2834    2835
CTETRA     25416       1     827    1883     828     352
CTETRA     25417       1    2245    2247    5259    5258
CTETRA     25418       1     491    2298    3586    3587
CTETRA     25419       1     745     737    1544     691
CTETRA     25420       1    1975    1961    2038    4801
CTETRA     25421       1    2246    2247    2842    5259
CTETRA     25422       1    1257    4782    4781    4790
CTETRA     25423       1    3594    2270     493     490
CTETRA     25424       1    2102    1896    2942    1990
CTETRA     25425       1    1638    3044    1628    5370
CTETRA     25426       1    1476    1477    3044    5359
CTETRA     25427       1    1628    5370    3044    5360
CTETRA     25428       1    1611    1131    1191    1337
CTETRA     25429       1    2534    1625    1613    1628
CTETRA     25430       1    2559    1477    5408    2561
CTETRA     25431       1    1563    1584    1571    1790
CTETRA     25432       1    2654    3963    2838    3269
CTETRA     25433       1    1704    2888    3247    1206
CTETRA     25434       1    3279     158    2035    2036
CTETRA     25435       1    2888    2325    1704    3251
CTETRA     25436       1    2325    1586    3238    3251
CTETRA     25437       1     159    2883    3282    3279
CTETRA     25438       1     165     661    1888     171
CTETRA     25439       1    2821    2841    2147    3183
CTETRA     25440       1    2567    4034    1065    4029
CTETRA     25441       1    1587    1430    1459    2856
CTETRA     25442       1    1164     707    1165    1166
CTETRA     25443       1    2821    2570    3170    3184
CTETRA     25444       1    2569    1064    2568    1065
CTETRA     25445       1    2250    2248    2844    2247
CTETRA     25446       1     630    1860     507     629
CTETRA     25447       1    1862    2836    2794    2078
CTETRA     25448       1    1862    2836    2842    2843
CTETRA     25449       1    2076    5251    2246    5252
CTETRA     25450       1    2246    2842    5223    5259
CTETRA     25451       1    2866    4793    2227    4780
CTETRA     25452       1    1208    2246    2842    5223
CTETRA     25453       1     492    5236    3085    1208
CTETRA     25454       1    2078    2275    2794     491
CTETRA     25455       1    3085    5236    5235    5233
CTETRA     25456       1    2794    2299    3569    1729
CTETRA     25457       1    1724    2299    1726    1328
CTETRA     25458       1    2848    2836    2843    5231
CTETRA     25459       1    1448    5355     351    5354
CTETRA     25460       1    1448    2396    2750    5355
CTETRA     25461       1    5346    1448    2919    2415
CTETRA     25462       1     351    1641    1361    1692
CTETRA     25463       1    1826    2820    2816    2543
CTETRA     25464       1    1960    1257    2227    4790
CTETRA     25465       1    2771    2021    5321    5325
CTETRA     25466       1    1361     351    5355    5319
CTETRA     25467       1    2750    2395    5356    2396
CTETRA     25468       1    1308    1307    2020    3061
CTETRA     25469       1    1447    2918    1442    1389
CTETRA     25470       1    1693    5322    4789    5328
CTETRA     25471       1    1257    1826    1960    1959
CTETRA     25472       1    2054    4939    2055    4966
CTETRA     25473       1     131    2259    2054    3081
CTETRA     25474       1    2054    2259    4966    3081
CTETRA     25475       1    4960    2259    4966    2054
CTETRA     25476       1    2133    2953    5710     586
CTETRA     25477       1    2054    4960    2258    4940
CTETRA     25478       1       5       6     133     657
CTETRA     25479       1     134    2056    2054    2258
CTETRA     25480       1    2055    1711    2056    2054
CTETRA     25481       1     349     348     344    1352
CTETRA     25482       1     975     977     974    2606
CTETRA     25483       1    1600    1300    1828    4201
CTETRA     25484       1    1599    1244    3756    4281
CTETRA     25485       1    2021    2450    5348    2750
CTETRA     25486       1     350    2021    1361    2750
CTETRA     25487       1    1082    1083    2450    2395
CTETRA     25488       1     219    1898    1867    1885
CTETRA     25489       1     350    2395    2750    2396
CTETRA     25490       1    1691    1692     829    2038
CTETRA     25491       1    1448     350     353     351
CTETRA     25492       1    2021    2450    5321    5348
CTETRA     25493       1    2450    2750    2395    5348
CTETRA     25494       1    2635    4308    2562    2226
CTETRA     25495       1    2108    4311    5683    2800
CTETRA     25496       1    1297    2164    2364    2869
CTETRA     25497       1    2802    3385    2953    2930
CTETRA     25498       1    2949    2858    2782    4999
CTETRA     25499       1    1724     491    2299    2298
CTETRA     25500       1    1259    2245    2247    2246
CTETRA     25501       1    2245    2246    5259    2247
CTETRA     25502       1    1863    2848    2836    2843
CTETRA     25503       1    1293    1294    1292    1671
CTETRA     25504       1    2248    2245    5258    2247
CTETRA     25505       1    2076    2077    5210    5252
CTETRA     25506       1    1443    2077    1441    1444
CTETRA     25507       1    5234    5206    5852    3593
CTETRA     25508       1    2245    5259    2246    5251
CTETRA     25509       1    2134    3230    2823    3199
CTETRA     25510       1    4005    2720    2879    3225
CTETRA     25511       1    1040    1571    3199    3190
CTETRA     25512       1     496    1343    1909    1574
CTETRA     25513       1    1035     497     498    1584
CTETRA     25514       1     814    2325    3238    3237
CTETRA     25515       1    2070    1563    1557    1038
CTETRA     25516       1    1790    1586    1571    3239
CTETRA     25517       1    1317    2953    1320    1319
CTETRA     25518       1    2117    2335    3428    2334
CTETRA     25519       1     207    2235    2335    2334
CTETRA     25520       1    3417    2335    2592    2593
CTETRA     25521       1     634     825    1258    1443
CTETRA     25522       1    1390     493     491    3586
CTETRA     25523       1    2919    5346    5345    5353
CTETRA     25524       1    1208    2077    5252    5222
CTETRA     25525       1     491     492     493    2078
CTETRA     25526       1    2275    2794    3588    3592
CTETRA     25527       1     491    3577    2298    3587
CTETRA     25528       1    2298    1725    3583    3581
CTETRA     25529       1    2298    2299    3581    3577
CTETRA     25530       1    1389    3584    3591    3585
CTETRA     25531       1    5227     490     492    5235
CTETRA     25532       1     641    1323     646     644
CTETRA     25533       1     210    5836    2114     653
CTETRA     25534       1    1002     653    5302    5301
CTETRA     25535       1     210     653    1002    5301
CTETRA     25536       1    2485    1002     653    5302
CTETRA     25537       1    2841    2377    2821    1589
CTETRA     25538       1     887     372     886    1451
CTETRA     25539       1    2734    3020    2735    2313
CTETRA     25540       1    2147    2144    2821    2308
CTETRA     25541       1     447    1176    1140    1988
CTETRA     25542       1    1589    1661     188    2377
CTETRA     25543       1    2821    2308    3184    2147
CTETRA     25544       1     514     319     540    1910
CTETRA     25545       1    2147    2308    3185    3186
CTETRA     25546       1    2147    2308    3184    3185
CTETRA     25547       1    2537    3182    3174    3173
CTETRA     25548       1    2840    1999    2838    2033
CTETRA     25549       1    2192    3285    3260    3284
CTETRA     25550       1     982    3458     523    3436
CTETRA     25551       1     522     485     523    3925
CTETRA     25552       1     523     483    3436    3925
CTETRA     25553       1    2905    3457    1994    3439
CTETRA     25554       1     893    2528    2028    2037
CTETRA     25555       1     957     982     523     483
CTETRA     25556       1    2905    3457     943     982
CTETRA     25557       1    2187     343    2328    2244
CTETRA     25558       1    1438    1439    2105    1436
CTETRA     25559       1    2466     898    2037    2035
CTETRA     25560       1    2466    2037    2028    3286
CTETRA     25561       1    2746    2749    1653    5164
CTETRA     25562       1    2749    1430    1653    5163
CTETRA     25563       1    3385    3393    2930    2802
CTETRA     25564       1    3107    5173    5170    2464
CTETRA     25565       1    1652    5175    1651     412
CTETRA     25566       1     411     412    1652    1651
CTETRA     25567       1    2427    4413    4406    2605
CTETRA     25568       1    1652    1651    5175    5162
CTETRA     25569       1    5153    1652    1430    5163
CTETRA     25570       1    1333    1284    1336    1285
CTETRA     25571       1    1284    3679    3744    3680
CTETRA     25572       1    3076    1338    4209    1339
CTETRA     25573       1    1299    1301    2469    1300
CTETRA     25574       1    1243    1244    4282    3758
CTETRA     25575       1    1235    1217    1234     216
CTETRA     25576       1    1336    2122    3746    3776
CTETRA     25577       1    3766    3765    3754    1335
CTETRA     25578       1    1407     798     368    4711
CTETRA     25579       1     795    1407    1406     798
CTETRA     25580       1    1408    2477     796    4709
CTETRA     25581       1     795    1406    1408     798
CTETRA     25582       1    1408    4709     798    4712
CTETRA     25583       1    2598    2928    4390    2802
CTETRA     25584       1     794     368     798    2633
CTETRA     25585       1    1406     798    1407    4715
CTETRA     25586       1    1409    1305    1882    1410
CTETRA     25587       1    1412     262     264    1411
CTETRA     25588       1    1406    4717    1408    4712
CTETRA     25589       1    2476    4722    2116    5262
CTETRA     25590       1    2637    4749    4743     970
CTETRA     25591       1    2928    4405      66    4398
CTETRA     25592       1     624    5289    2775    5264
CTETRA     25593       1    1692    1361    1963    2038
CTETRA     25594       1    1963    2021    1975    1361
CTETRA     25595       1    2021    5320    1361    2750
CTETRA     25596       1    2417    1083    1081    5332
CTETRA     25597       1     513     514     516     518
CTETRA     25598       1    1604     519    4399    4400
CTETRA     25599       1    2450    5349    1083    5332
CTETRA     25600       1    2021    2750    5348    5320
CTETRA     25601       1    1503    1372    4810    1871
CTETRA     25602       1     845    2554    5023    5179
CTETRA     25603       1    1277    2712    5179    5201
CTETRA     25604       1    2875    4125    1118    2710
CTETRA     25605       1     527    1277    5201    2712
CTETRA     25606       1    1553     321    1554     721
CTETRA     25607       1    1260     526    1277    5021
CTETRA     25608       1      81      80    1640      82
CTETRA     25609       1     105    3634    3631     104
CTETRA     25610       1    3635     105    3634    3631
CTETRA     25611       1     103    3635    1345    3636
CTETRA     25612       1     666    5857    3566    5229
CTETRA     25613       1    3567    2794    3620    2795
CTETRA     25614       1     632     104    3633     275
CTETRA     25615       1     632     104    3630    3633
CTETRA     25616       1      14     210     209    1002
CTETRA     25617       1    1911    2427      66      68
CTETRA     25618       1    2592    2808    3411    3412
CTETRA     25619       1    2117    2335    3400    3428
CTETRA     25620       1    1946    2958    3398    2808
CTETRA     25621       1    2117      18    1202    2592
CTETRA     25622       1      26      19    1202    1469
CTETRA     25623       1    2532    5303    1388    5299
CTETRA     25624       1    1257    4790    1826    2347
CTETRA     25625       1     640     636     628     631
CTETRA     25626       1    1826    1258     353    2543
CTETRA     25627       1    2573    2082    2969     477
CTETRA     25628       1     893    1991    2528    1992
CTETRA     25629       1    1991    3260    2192    2528
CTETRA     25630       1     894    2005    1992    2036
CTETRA     25631       1    2035    2037    3287    3262
CTETRA     25632       1     894    1992    2033     893
CTETRA     25633       1    3012    3265    2970    3290
CTETRA     25634       1     155    1508     161    1578
CTETRA     25635       1     665     660    2651     375
CTETRA     25636       1    1555    2780    2217    1380
CTETRA     25637       1    3104     188    2646    2377
CTETRA     25638       1     572    4031     567    4028
CTETRA     25639       1    1016    1017    1039    2720
CTETRA     25640       1    3042     140    1188    2317
CTETRA     25641       1    2747    5142    5165    5143
CTETRA     25642       1     672     226     674    1222
CTETRA     25643       1    2646    2377    3103    3104
CTETRA     25644       1     826     827     350    2397
CTETRA     25645       1    1448     351    5347    5354
CTETRA     25646       1     826    2415    1448    1444
CTETRA     25647       1    2936    5210    2077    5209
CTETRA     25648       1    1441    5208    1444    5209
CTETRA     25649       1    1077    2395    1883    3056
CTETRA     25650       1    1258    2816    1958    2076
CTETRA     25651       1      69    2802    2598    2133
CTETRA     25652       1    3582    1446    2410    1390
CTETRA     25653       1    3582    3574    3023    1390
CTETRA     25654       1     502    2893     452     501
CTETRA     25655       1    1390    2298    3576    3586
CTETRA     25656       1    1390    2410    3582    3583
CTETRA     25657       1    3575    1390    3574    3582
CTETRA     25658       1    1390    3576    2298    3583
CTETRA     25659       1    1446    2406    2407     825
CTETRA     25660       1    2266    3585    3593    3586
CTETRA     25661       1    3085    1441    1208    5236
CTETRA     25662       1     210     653    5301    5836
CTETRA     25663       1     210    5304    1856     623
CTETRA     25664       1    2915    2814    1982    1996
CTETRA     25665       1    2114    4444     654    5836
CTETRA     25666       1      14      16     201      17
CTETRA     25667       1      14     202     210     201
CTETRA     25668       1     648     654    2114    4444
CTETRA     25669       1    1419     783    1417    5140
CTETRA     25670       1    3228     188    1659    2646
CTETRA     25671       1    3102    2646     226    1044
CTETRA     25672       1    2720    2829    3220    3226
CTETRA     25673       1      68    2953    2930    2802
CTETRA     25674       1    1877    5145    2430     237
CTETRA     25675       1     226    3231    2859    3232
CTETRA     25676       1     226    2859    3231    1222
CTETRA     25677       1    2859    3231    1222    3233
CTETRA     25678       1     190     198    1296     194
CTETRA     25679       1    4301    1886    1437    2072
CTETRA     25680       1    1886    4314    1682    4301
CTETRA     25681       1    1521    2320    4337    2230
CTETRA     25682       1     600    2741    1303    1266
CTETRA     25683       1    1037    1063    1039    4003
CTETRA     25684       1     932    3960    3953    3952
CTETRA     25685       1     956    2192    2029    2528
CTETRA     25686       1    2034    2840     523     956
CTETRA     25687       1    2840     522     523    3434
CTETRA     25688       1    2883     159    1704     162
CTETRA     25689       1    1451    1455    3986    3985
CTETRA     25690       1    2825    4039    3141    4052
CTETRA     25691       1    1581    2854    1456    2129
CTETRA     25692       1     886    1456    1455    1451
CTETRA     25693       1    4044    1456    2854    3984
CTETRA     25694       1    1456    2129    3984    3985
CTETRA     25695       1    1455    1451    3986    2083
CTETRA     25696       1    1456    1434     886    1453
CTETRA     25697       1    4153    1818    3124    1510
CTETRA     25698       1    1371    4823    4819    4821
CTETRA     25699       1    1975    1961    4801    4805
CTETRA     25700       1    1866    4826    4828    4827
CTETRA     25701       1    1077    1834    1079    1883
CTETRA     25702       1    2032    1503    4824    1506
CTETRA     25703       1    1372    4807    2522    4806
CTETRA     25704       1    1502    1864    1506    1505
CTETRA     25705       1    2038    4801    1961    4802
CTETRA     25706       1    2863    1055    5255    1524
CTETRA     25707       1     261     624     625     201
CTETRA     25708       1    1048    1049    2475    2865
CTETRA     25709       1    1058    5216    2131    5217
CTETRA     25710       1    1054    1053    5238    5218
CTETRA     25711       1    1055    1054    5238    5239
CTETRA     25712       1      79      78      80    2538
CTETRA     25713       1    1851    1908    2860    2209
CTETRA     25714       1     613    2206    2428    1869
CTETRA     25715       1    1854    4907    1687    2860
CTETRA     25716       1     873     872    1910     874
CTETRA     25717       1    3381    4384    3371    2311
CTETRA     25718       1    2154    4295     613    2137
CTETRA     25719       1    2428    2154    4294    4295
CTETRA     25720       1     539     538     540    1796
CTETRA     25721       1    2206    2428    4295     613
CTETRA     25722       1    2597    3376    4389    3374
CTETRA     25723       1     516    1512    4381    1710
CTETRA     25724       1    4380    1519    2428    1869
CTETRA     25725       1     607    1302     528    1907
CTETRA     25726       1    1502    1871    1506    2183
CTETRA     25727       1    1506    4812    1868    4811
CTETRA     25728       1    1506    1871    4811    2183
CTETRA     25729       1    1699    1761      20    1322
CTETRA     25730       1    1503    1871    4810    4811
CTETRA     25731       1    2388    4832    1461    5372
CTETRA     25732       1    2347    2590    4783    4794
CTETRA     25733       1    2589    4794    2347    4788
CTETRA     25734       1    1641    1361    5326    5323
CTETRA     25735       1    1681    2866    1676    1675
CTETRA     25736       1    2347    4783     863    4777
CTETRA     25737       1    2590    4783     863    2347
CTETRA     25738       1    1575    1204    1584    1205
CTETRA     25739       1    1960    2820    5330    2816
CTETRA     25740       1    1678    4776    4768    4775
CTETRA     25741       1      87     822    1047    2090
CTETRA     25742       1    4790    1826    2347    1924
CTETRA     25743       1    5140    1419    5141    5157
CTETRA     25744       1    1657    3211    3212    3210
CTETRA     25745       1     237    5146    1874    5145
CTETRA     25746       1    5146    1432     783    1417
CTETRA     25747       1    1369    1503    1871    1372
CTETRA     25748       1    2032    1506    4824    4829
CTETRA     25749       1    1885    2560    2417    1081
CTETRA     25750       1    1503    4810    1372    4820
CTETRA     25751       1    1503    4824    1506    4811
CTETRA     25752       1    2544    5194    2373    5189
CTETRA     25753       1    2373    5201    2626    5189
CTETRA     25754       1    2373    5181    2378    5180
CTETRA     25755       1    2378    2712    5180    5186
CTETRA     25756       1    3021    5194    5192    5182
CTETRA     25757       1    2313    3020     109    2310
CTETRA     25758       1    2145    1654    2841    1589
CTETRA     25759       1     817     260    5267     264
CTETRA     25760       1     104     683    2153     274
CTETRA     25761       1    1051     427     788     785
CTETRA     25762       1    1934     818    5268    5284
CTETRA     25763       1    1934    5284    5268    5269
CTETRA     25764       1    2152     423     650     651
CTETRA     25765       1     722     633     817     424
CTETRA     25766       1     263     264     818     993
CTETRA     25767       1    2132     818     652     993
CTETRA     25768       1     620     780    2890    2792
CTETRA     25769       1     683     632    3630    3360
CTETRA     25770       1     664    5293    5269    5268
CTETRA     25771       1    2429     978    2871    1255
CTETRA     25772       1    1230    4287    2957    1804
CTETRA     25773       1    1230    2957    4287    4285
CTETRA     25774       1    4288    1230    1804    4287
CTETRA     25775       1    2600    4277    1230    4288
CTETRA     25776       1    2600    2937    4237    1803
CTETRA     25777       1    1253    3527    3526    4250
CTETRA     25778       1    1615    1230    4285     974
CTETRA     25779       1    2871    1243    1244    1229
CTETRA     25780       1     343    1840    2332     752
CTETRA     25781       1    1563    2134    1040    1571
CTETRA     25782       1     227    3232    2859    3204
CTETRA     25783       1    1057    3143    4024    4017
CTETRA     25784       1    1414    1433    1418    1431
CTETRA     25785       1    3205    1657    2539    2859
CTETRA     25786       1     227    3228    2646    3227
CTETRA     25787       1    2747    2749    5165    5155
CTETRA     25788       1    1185    2280    2925    3040
CTETRA     25789       1    1499    2358    1545    3524
CTETRA     25790       1    1243    4278    1253    3484
CTETRA     25791       1    2600    1803    4237    4288
CTETRA     25792       1     996    2600    1230    1803
CTETRA     25793       1    2600    4288    1230    1803
CTETRA     25794       1    2693    2682    3520    3522
CTETRA     25795       1    1253    3526    4235    4250
CTETRA     25796       1     999    3007    3692    3731
CTETRA     25797       1    2767    2766    3710    3692
CTETRA     25798       1    2878    3730    2850     998
CTETRA     25799       1    3036    3711    3714    3690
CTETRA     25800       1    1969    3722    2449    3690
CTETRA     25801       1    3036    4066    3008    4205
CTETRA     25802       1    3006    3082    3036     997
CTETRA     25803       1     548     998    3007     999
CTETRA     25804       1     997     998    3691    3690
CTETRA     25805       1    2531    3006    3082    2352
CTETRA     25806       1    1969    3690    3689    3722
CTETRA     25807       1      35    2080      36    2548
CTETRA     25808       1     998     999    3731    3007
CTETRA     25809       1     548    3007     998    2850
CTETRA     25810       1    2657    3719    1970    4207
CTETRA     25811       1    2448    3719    3721    3722
CTETRA     25812       1    1183    3553    2959    3488
CTETRA     25813       1    3553    2959    2322    2513
CTETRA     25814       1    2763    1178    2513    2959
CTETRA     25815       1    2379    2731    2790    4113
CTETRA     25816       1    3554    1178    3553    1180
CTETRA     25817       1    2513    1180    3552    3553
CTETRA     25818       1    2817    5343    5335    5337
CTETRA     25819       1    1040    2070    3190    3200
CTETRA     25820       1    1422     972    1427     232
CTETRA     25821       1    1180    1178    3553    2513
CTETRA     25822       1    1389    3591    2991    2918
CTETRA     25823       1    1182    3486    3502    3504
CTETRA     25824       1    1118    4125    4124    4168
CTETRA     25825       1    2804    5787    4868    4167
CTETRA     25826       1    1116    1117    1118    4168
CTETRA     25827       1    1021    1022    1589    1587
CTETRA     25828       1    2432    5003    2740    4871
CTETRA     25829       1    1260     845    5022    1277
CTETRA     25830       1     107    1384    1807    1387
CTETRA     25831       1     924     100     923     925
CTETRA     25832       1    3721    3076    2448    1283
CTETRA     25833       1    2580    4186    1599    3743
CTETRA     25834       1    1298    1299    1301    1284
CTETRA     25835       1    3200    1040    2070    3201
CTETRA     25836       1    1338    4210    1301    4199
CTETRA     25837       1    1283    1285    2453    3681
CTETRA     25838       1    1041    3215    2823    3226
CTETRA     25839       1    1036    2214    3999    2457
CTETRA     25840       1    2194    1041    4007    3224
CTETRA     25841       1    1067    3222    3220    3221
CTETRA     25842       1    1017    1902    2829    2720
CTETRA     25843       1    1063    4003    4002    4021
CTETRA     25844       1    3225    4005    2720    1041
CTETRA     25845       1    1039    4010    2457    3999
CTETRA     25846       1    1036    4004    1039    3999
CTETRA     25847       1    1039    4010    1223    1744
CTETRA     25848       1    2134    3199    1572    3230
CTETRA     25849       1    1419    5142     783    5141
CTETRA     25850       1    1429     187    3073     188
CTETRA     25851       1    5142    3087    2747     783
CTETRA     25852       1    1656    1429    2747    1419
CTETRA     25853       1    2379    5793    4518    4097
CTETRA     25854       1    2746    2747    2749    5165
CTETRA     25855       1    2829    2823    3230    3216
CTETRA     25856       1    2749    5155    1419    5154
CTETRA     25857       1    1419    1433    1430    5157
CTETRA     25858       1    1414     669    1431    1416
CTETRA     25859       1    2379    2731    4113    4097
CTETRA     25860       1     651    1053    5218    5219
CTETRA     25861       1    2283     651    5219    1053
CTETRA     25862       1    1052     993     652    5281
CTETRA     25863       1     652    5281     993    5285
CTETRA     25864       1    2829    1067    2720    3220
CTETRA     25865       1    2153     103     105    1345
CTETRA     25866       1     722    3404    3360     683
CTETRA     25867       1    1934     664    3404    5269
CTETRA     25868       1    1050    1052     652    1053
CTETRA     25869       1     652     651    5218    5282
CTETRA     25870       1     683     632     104    3630
CTETRA     25871       1     650     683    3361    1934
CTETRA     25872       1    2283    2807    2864    5226
CTETRA     25873       1    1046    1050    1056    1054
CTETRA     25874       1    1946    2117    3399    3421
CTETRA     25875       1    2386    2601    2670    2251
CTETRA     25876       1    2947    2262    2264    2251
CTETRA     25877       1    4101    1073    1125    2628
CTETRA     25878       1     309    2628    2551    2798
CTETRA     25879       1    2558    4517    5792    4511
CTETRA     25880       1    1124    4091    1159    4073
CTETRA     25881       1    1124    4101    1125    4091
CTETRA     25882       1    2769    3710    2368    3709
CTETRA     25883       1    2448    2449    2656    1969
CTETRA     25884       1    3082     999    3716    3711
CTETRA     25885       1    2767     999    3692    3716
CTETRA     25886       1    2767    3692     999    2766
CTETRA     25887       1    1761    1837    1762    2946
CTETRA     25888       1    3056    2395    1883    2396
CTETRA     25889       1    1182    3487    1183    3502
CTETRA     25890       1    1741    2765    3500    3499
CTETRA     25891       1    1183    1178    2959    3553
CTETRA     25892       1    3057    3485    3504    5849
CTETRA     25893       1    1177    1179    2514    1180
CTETRA     25894       1    1982     882     365    3095
CTETRA     25895       1     954    4964     962    3081
CTETRA     25896       1     960     961     282     268
CTETRA     25897       1     268     181     961     282
CTETRA     25898       1     960     954    1935    2474
CTETRA     25899       1     954     962    4964    4954
CTETRA     25900       1    1935    4955    4954     954
CTETRA     25901       1    4956    1935    4955    4954
CTETRA     25902       1     978     980    2123     419
CTETRA     25903       1    2123    3080    2873     978
CTETRA     25904       1    2871    1229    1615    1230
CTETRA     25905       1    1255    2682    3522    3513
CTETRA     25906       1    2123    2124    3080    2694
CTETRA     25907       1    2693    2682    2695    3520
CTETRA     25908       1    2694     981     697    2982
CTETRA     25909       1    1911    4414      66    2427
CTETRA     25910       1     141    3042     140    4416
CTETRA     25911       1    1602     140    4408    1604
CTETRA     25912       1      26    1474    1475    1478
CTETRA     25913       1    2155    1688    1690    4403
CTETRA     25914       1      66    4414    1604    4407
CTETRA     25915       1    2050     642    2051    2482
CTETRA     25916       1    2809    4409    4416    4417
CTETRA     25917       1      66     519    4399    1604
CTETRA     25918       1    1708    1686    1687    1690
CTETRA     25919       1     325    1915    1686    1605
CTETRA     25920       1    2260    3372    2311    3382
CTETRA     25921       1     517     518    1603    1602
CTETRA     25922       1    2239    1113    2890     781
CTETRA     25923       1    1119     587    1113    2890
CTETRA     25924       1    1469    2808    1592    1202
CTETRA     25925       1      17    1947    1856    1002
CTETRA     25926       1    1856    5305     623    5304
CTETRA     25927       1    1856    5297     617    5305
CTETRA     25928       1     887      93    2684    1554
CTETRA     25929       1    2360    4178    2546    4165
CTETRA     25930       1    2432     844    2740    5003
CTETRA     25931       1    1068    2432    2740    1894
CTETRA     25932       1     843     845    5002    5001
CTETRA     25933       1    1117    4173    2452    4166
CTETRA     25934       1    1115     844    4870    4869
CTETRA     25935       1    2872    3754    1335    3755
CTETRA     25936       1    1335    1336    3766    2874
CTETRA     25937       1    1298    1600    4185    1300
CTETRA     25938       1    2873    3080    3482    2693
CTETRA     25939       1    1334    1336    3744    3767
CTETRA     25940       1    2873    3483    1255    2693
CTETRA     25941       1    2873    2693    3482    3483
CTETRA     25942       1    1388    5839    2479    3420
CTETRA     25943       1    2124    2694    3481    3080
CTETRA     25944       1    2493    2230    4336    4352
CTETRA     25945       1     599     610     606    1398
CTETRA     25946       1    4923    2165    1679    4922
CTETRA     25947       1    4329    4922    4327    1679
CTETRA     25948       1    2148    2137    2576    2149
CTETRA     25949       1    4329    1400    1668    1679
CTETRA     25950       1    2165    2168    4902    4921
CTETRA     25951       1     605    1401    1398     606
CTETRA     25952       1    1401    1682    4344    4345
CTETRA     25953       1    1400    4345    1401    4346
CTETRA     25954       1    2662    2089    4297    4334
CTETRA     25955       1     517    1604    1602    4400
CTETRA     25956       1    2810    2334    3428    3424
CTETRA     25957       1    2117    2592    3400    2335
CTETRA     25958       1     491    2794    2299    3588
CTETRA     25959       1     103    3623    2839    3619
CTETRA     25960       1    3597    2839    3624    3620
CTETRA     25961       1    3620    1729    3597    2839
CTETRA     25962       1      78    2839    2538    1728
CTETRA     25963       1     650     666     667    2282
CTETRA     25964       1    1345     103    3636    3624
CTETRA     25965       1    3623    2839    3624     103
CTETRA     25966       1    2839    1729    3597    1728
CTETRA     25967       1    2808      17    1946    2958
CTETRA     25968       1    2282    2848    2807    5230
CTETRA     25969       1    2835    3876    3832    3831
CTETRA     25970       1    4083    3834    3678    3000
CTETRA     25971       1    2681    2683    3922    3896
CTETRA     25972       1    3026    4160     920    4163
CTETRA     25973       1    2437    3829    2061    2438
CTETRA     25974       1    3067    3829    2437    3830
CTETRA     25975       1    2791    2439    2438    2684
CTETRA     25976       1    2550    4515    4519    4517
CTETRA     25977       1    2558    4515    2550    4517
CTETRA     25978       1    3077    4523    2910    3013
CTETRA     25979       1    1162    2558    4088    4511
CTETRA     25980       1     302     305    1165    1645
CTETRA     25981       1    2550    2789    4519    2943
CTETRA     25982       1    4516    3013    2549    2943
CTETRA     25983       1    3013    4505    4516    4521
CTETRA     25984       1     299    2943    2549    3013
CTETRA     25985       1    2551    1124    4090    4101
CTETRA     25986       1    2797    4115    2790    4123
CTETRA     25987       1    2379    4518    2731    4097
CTETRA     25988       1    2793    2797    4123    2263
CTETRA     25989       1    2789    4507    4518    4519
CTETRA     25990       1    2789    2943    4506    4519
CTETRA     25991       1     643    2050     642    2051
CTETRA     25992       1     298     384    2943    2345
CTETRA     25993       1    1072     299    2556    2550
CTETRA     25994       1    2551    4100    2557    4116
CTETRA     25995       1    1895    4515    4511    4510
CTETRA     25996       1    3077    4523    2911    2910
CTETRA     25997       1    2550    4515    2549    4516
CTETRA     25998       1    2556     298    2789    2943
CTETRA     25999       1     912    1124     914    2433
CTETRA     26000       1     912     914    1124    1159
CTETRA     26001       1    1071    3077    1158    1894
CTETRA     26002       1    1114    1256    4171    2361
CTETRA     26003       1    2361    4169     914    1159
CTETRA     26004       1    2433    1124    4074    4090
CTETRA     26005       1    1158    4451    2432    1894
CTETRA     26006       1    1115    4869    4449    4448
CTETRA     26007       1    1454    2359    3987    4048
CTETRA     26008       1    1458    1806    2998    2935
CTETRA     26009       1    1455    1456    3985    1451
CTETRA     26010       1    1455    3987    2083    3986
CTETRA     26011       1    4043    1456    3985    1455
CTETRA     26012       1    1072    2558    1895    2550
CTETRA     26013       1    2551    4116    2557    2798
CTETRA     26014       1    1895    2549    2550    4515
CTETRA     26015       1    1116    4165    1117    4168
CTETRA     26016       1    1895    4509    3077    4520
CTETRA     26017       1    3077    4523    2549    4520
CTETRA     26018       1    1158    4451    3077    4509
CTETRA     26019       1    4523    3077    2911    4451
CTETRA     26020       1    2208    1852    1908    4905
CTETRA     26021       1     601    1264     603     189
CTETRA     26022       1    1521    2230    4337    4336
CTETRA     26023       1    2655    2662    4334    2394
CTETRA     26024       1    2206    4370    4371    4914
CTETRA     26025       1    2787    4524    4525    4527
CTETRA     26026       1    2787    3005    4534    4524
CTETRA     26027       1    2731    2789    4507    4518
CTETRA     26028       1    2660     744    2941    4061
CTETRA     26029       1     910    2300    4536     911
CTETRA     26030       1     384    4535     383     911
CTETRA     26031       1     911    4536    4499    2300
CTETRA     26032       1      35    2548      36    2547
CTETRA     26033       1    3036    1969    3008     997
CTETRA     26034       1     343    2786    1839    2759
CTETRA     26035       1     774    1685    1884    1831
CTETRA     26036       1    3058     773    4579    2729
CTETRA     26037       1    1533    1530    1529    4234
CTETRA     26038       1     775     773    3058     772
CTETRA     26039       1    2186    2547    4219    4220
CTETRA     26040       1      58    1214    1531    1533
CTETRA     26041       1    2739    3709    2768    3699
CTETRA     26042       1    1141    2766     546    2390
CTETRA     26043       1    2722    3699    2644    3675
CTETRA     26044       1    2708    4086    2961    3703
CTETRA     26045       1    2739    2769    2768    3709
CTETRA     26046       1    3047    2767    3715    3712
CTETRA     26047       1    2769    2767    3710    3715
CTETRA     26048       1    2769    2767    2368    3710
CTETRA     26049       1    2962    2530    2352    4081
CTETRA     26050       1    4203    1829    4214    1884
CTETRA     26051       1    3050    4189    1884    4215
CTETRA     26052       1    1884    1214    3014    1685
CTETRA     26053       1    1684    1884    1830    1827
CTETRA     26054       1    1884    1827    4203    1830
CTETRA     26055       1    5680    1439    2105    1438
CTETRA     26056       1    2082     626    5072     476
CTETRA     26057       1    1002     209     655     653
CTETRA     26058       1     958    2029    2904    2108
CTETRA     26059       1    1542    1835    1058    5240
CTETRA     26060       1    2905    3455     943    3457
CTETRA     26061       1     958    2905     982    1994
CTETRA     26062       1    2877    4213    1884    3014
CTETRA     26063       1    2877    4215    1884    4213
CTETRA     26064       1    1533    2877    1214    3014
CTETRA     26065       1    2877     755    4216    4228
CTETRA     26066       1    2658    1637    2301    3079
CTETRA     26067       1     774    1312    3071     773
CTETRA     26068       1    1828    1684    1827    1884
CTETRA     26069       1     774    2877    3050    1884
CTETRA     26070       1      54    1536    1537      59
CTETRA     26071       1    2659    4501    4578    4502
CTETRA     26072       1    3059    2301    2728    4584
CTETRA     26073       1    1537    2495    3059    1817
CTETRA     26074       1     916    2300    1637    3079
CTETRA     26075       1    3079    4526    4525    4501
CTETRA     26076       1    3079    2300    4500    4525
CTETRA     26077       1    2661    4502    4555    5798
CTETRA     26078       1     878    2909    2941    2547
CTETRA     26079       1      57     877      63    1609
CTETRA     26080       1    2659    3059    4578    4582
CTETRA     26081       1    2888    3247    1206    3248
CTETRA     26082       1    2719    5108    3009    2456
CTETRA     26083       1     931     896    1507     161
CTETRA     26084       1    1542    5242    1055    1524
CTETRA     26085       1     159    2883    1704    3282
CTETRA     26086       1    2456     534    5107    5100
CTETRA     26087       1    3009    5100    2456    5108
CTETRA     26088       1     161    2005     894     159
CTETRA     26089       1    3009    2456    5100     534
CTETRA     26090       1    3016    4068    3000    3832
CTETRA     26091       1    3000    3834    3835    3831
CTETRA     26092       1    2867    4159    2667    2666
CTETRA     26093       1    3016    2711    4158    3877
CTETRA     26094       1    1046    1055    1058    1054
CTETRA     26095       1    2643    2065    3837    3675
CTETRA     26096       1    1672    2865    4761    1292
CTETRA     26097       1     952    1304     970    2477
CTETRA     26098       1    5257    2863    5256    1674
CTETRA     26099       1    2227    1959    4780    4781
CTETRA     26100       1    1047    2779    2475    1293
CTETRA     26101       1    2331    2921    3660    2743
CTETRA     26102       1    2331     363    3812    3464
CTETRA     26103       1    2331    1313    3465    3812
CTETRA     26104       1    2331    1313    3657    3465
CTETRA     26105       1    2331    2743    3660    3657
CTETRA     26106       1    4749    2637    1835     970
CTETRA     26107       1     970    4707    4706    4749
CTETRA     26108       1    1306    5214    5887    5272
CTETRA     26109       1    1306    4706    4707    4718
CTETRA     26110       1    1055    1058    1054    5239
CTETRA     26111       1    2637    1540    4744    4751
CTETRA     26112       1     160     156    1522    1440
CTETRA     26113       1    3066    2040    3275    1206
CTETRA     26114       1    2718    5111    5110    5114
CTETRA     26115       1    2040    3012    3278    2883
CTETRA     26116       1    2040    3266    3012    5061
CTETRA     26117       1     658     665     169     660
CTETRA     26118       1    2595    2504    4596    4490
CTETRA     26119       1    2595    2502    4613    4596
CTETRA     26120       1    2594    2595    4613    4597
CTETRA     26121       1    2565    4561    4198    5801
CTETRA     26122       1    2846    4493    4561    4492
CTETRA     26123       1    1412    5216    5279    2131
CTETRA     26124       1    4558    1218    2729     773
CTETRA     26125       1    2267    2581    2773    2582
CTETRA     26126       1    2788    4614    2564    4615
CTETRA     26127       1     977     973    2957    2974
CTETRA     26128       1    2434    1842    4702    4670
CTETRA     26129       1    2380    4650    2434    4651
CTETRA     26130       1    2434    2223    2224    4650
CTETRA     26131       1    1832    2871    2872    1244
CTETRA     26132       1    2380    2434    4650    2223
CTETRA     26133       1    2783    4271    2409    2609
CTETRA     26134       1    2778    4634    4633    4652
CTETRA     26135       1    2990    3677    3835    3678
CTETRA     26136       1     277    2252    2065    2061
CTETRA     26137       1    2620    2617    4093    2663
CTETRA     26138       1    2834    3067    3830    3835
CTETRA     26139       1    2722    3675    2643    3676
CTETRA     26140       1    2670    2643    2990    3677
CTETRA     26141       1    3837    2061    2643    3067
CTETRA     26142       1    2503    2595    2596    3071
CTETRA     26143       1    3071    2501    4490    4558
CTETRA     26144       1    3071    2595    4491    4490
CTETRA     26145       1    3071    2595    4490    2504
CTETRA     26146       1    2565     775    4560    4559
CTETRA     26147       1    2596    3071    4491    4560
CTETRA     26148       1    1817    4583    3058    4556
CTETRA     26149       1     772      59     754     755
CTETRA     26150       1    1046    1052    1050    1054
CTETRA     26151       1    4766    4767    4765    1835
CTETRA     26152       1    3058    4579     773    4557
CTETRA     26153       1     773    3071    4562    4558
CTETRA     26154       1     775     773    4562    4564
CTETRA     26155       1     772    3051    2877     755
CTETRA     26156       1     755    1533    1214      59
CTETRA     26157       1    1058    1054    5239    5217
CTETRA     26158       1    1138     702     240    1139
CTETRA     26159       1    2670    3701    2722    3676
CTETRA     26160       1    4766    4749    2637    1835
CTETRA     26161       1    2264    2630    2386    2616
CTETRA     26162       1    2961    2709    3697    3047
CTETRA     26163       1    2708    4079    2736    4086
CTETRA     26164       1    2736    2389    2530    4080
CTETRA     26165       1    2709    2769    3698    3697
CTETRA     26166       1     952     947    1835    1304
CTETRA     26167       1    2670    3677    3702    3701
CTETRA     26168       1    4068    3000    4082    2867
CTETRA     26169       1    2990    3677    2643    3833
CTETRA     26170       1    2643    2065    3675    2644
CTETRA     26171       1     715    2643    2061    3067
CTETRA     26172       1    2413     368    4678    4711
CTETRA     26173       1    1407     798    4711    4715
CTETRA     26174       1    2413    4678     366    4475
CTETRA     26175       1     202     313    1716     367
CTETRA     26176       1    1058    1054    5217    2131
CTETRA     26177       1    2413    1407     367     368
CTETRA     26178       1    1882    5273    2362    5270
CTETRA     26179       1    2116    5287    5263    5262
CTETRA     26180       1     366     367     368    2413
CTETRA     26181       1     795    1408     796     798
CTETRA     26182       1    2252    2251    2722    2670
CTETRA     26183       1    2252    2722    2644    2643
CTETRA     26184       1    2389    2736    2265    2630
CTETRA     26185       1    2722    2739    3699    3705
CTETRA     26186       1    2722    2739    2644    3699
CTETRA     26187       1    2973    1318    2235    3430
CTETRA     26188       1    2235    1318    3431    3430
CTETRA     26189       1    2413    2112    1716    2922
CTETRA     26190       1    1323    2235    2973    1318
CTETRA     26191       1    2235    2334    3426    3427
CTETRA     26192       1    2235    2335    3427    1145
CTETRA     26193       1    2235    3426    2334    3423
CTETRA     26194       1     207    2235    1145    2335
CTETRA     26195       1     938     935     644    2050
CTETRA     26196       1    2415    1444    5208    5346
CTETRA     26197       1    2074    3948    2075    2073
CTETRA     26198       1    2194    3997     906    3996
CTETRA     26199       1    1764    3950    1228    3955
CTETRA     26200       1    3955    1764     532    1228
CTETRA     26201       1    2447     532    1764    1228
CTETRA     26202       1    1792    3953    3958    3954
CTETRA     26203       1    2068    1558    1706    2447
CTETRA     26204       1    1003    1261    1263    1264
CTETRA     26205       1    2904    2108    2029    3304
CTETRA     26206       1    2904    2029    2192    3284
CTETRA     26207       1    2027     899    2028    2104
CTETRA     26208       1    1712    2030     318    2490
CTETRA     26209       1     200    1994    1995    2613
CTETRA     26210       1    1994     982    3459    3457
CTETRA     26211       1    2963    4313    2800    3446
CTETRA     26212       1     899     893    2029    2028
CTETRA     26213       1    2840    3961    3939    3433
CTETRA     26214       1     943    3456     523    3458
CTETRA     26215       1    1448    5353    2919    2396
CTETRA     26216       1    1533    4230     755    4229
CTETRA     26217       1     772     755     754    3051
CTETRA     26218       1    2427    1875      68    1911
CTETRA     26219       1    1911    1604      66    4414
CTETRA     26220       1    2233    4847    2363    2204
CTETRA     26221       1    2811    4419    2427    4412
CTETRA     26222       1     520    4356    2598     519
CTETRA     26223       1     521     329     584     538
CTETRA     26224       1     585    2133    2953    2802
CTETRA     26225       1    5709    3362    5708    1320
CTETRA     26226       1     585    1320    2953     586
CTETRA     26227       1    2340    2341    3363    1319
CTETRA     26228       1    1320    3362    5708    1319
CTETRA     26229       1    2973    1319    3430    3363
CTETRA     26230       1    1319    2953    1320    3362
CTETRA     26231       1     624    2775    5289     623
CTETRA     26232       1     624     623    5289    5288
CTETRA     26233       1    1411     624    2775    5264
CTETRA     26234       1    2362    5270    5273    5263
CTETRA     26235       1    1306    1305    4718    4707
CTETRA     26236       1    1715     623     624    5288
CTETRA     26237       1     261    2775     623     617
CTETRA     26238       1      13    1146     936     279
CTETRA     26239       1    2153     667     683     104
CTETRA     26240       1    2028    2104     898    2466
CTETRA     26241       1    2992    2396    5352    5356
CTETRA     26242       1     159    2883    3279     158
CTETRA     26243       1    1446    1389    1442    1390
CTETRA     26244       1    2466    2035    2037    3287
CTETRA     26245       1    2104    2028    3301    3302
CTETRA     26246       1    2654    1993    2838    1999
CTETRA     26247       1     629    2816    1826    1960
CTETRA     26248       1    2103    2105    3300    3297
CTETRA     26249       1     477    5071    2467    5069
CTETRA     26250       1    3298    2027    3297    2105
CTETRA     26251       1     478    1060    5079    5047
CTETRA     26252       1     476    5075     478    5079
CTETRA     26253       1    2471    2923    5047    5048
CTETRA     26254       1     475     152    2082     476
CTETRA     26255       1    2094    2103    2104    2105
CTETRA     26256       1    2467     478    5069    5074
CTETRA     26257       1    1849    1399    2211    2949
CTETRA     26258       1    1678    1292    4768    1294
CTETRA     26259       1    4776    1959    1678    2228
CTETRA     26260       1    1678    4768    1292    4758
CTETRA     26261       1    2228    1959    1257    4776
CTETRA     26262       1      78    1863    1724    1862
CTETRA     26263       1    2249    2863    2844    2248
CTETRA     26264       1    1672    4757    1678    4758
CTETRA     26265       1    1960    5213    2866    5212
CTETRA     26266       1    1958    2248    2245    5250
CTETRA     26267       1    1049    2863    1524    1055
CTETRA     26268       1    2863    2844    5261    5254
CTETRA     26269       1    2248    2245    5250    5258
CTETRA     26270       1    2536    2307    3173    3172
CTETRA     26271       1    2537    2081    5168    5173
CTETRA     26272       1    3073    2377    3105    3179
CTETRA     26273       1    2536     411     410    2081
CTETRA     26274       1    2536     411    2535    2145
CTETRA     26275       1    2537    5173    2464    2535
CTETRA     26276       1    2145    2841    1654    2537
CTETRA     26277       1    2816    2076    5210    5211
CTETRA     26278       1     188    3073    2377    3105
CTETRA     26279       1    3183    3179    2821    2841
CTETRA     26280       1    2746    5171    5165    5169
CTETRA     26281       1    2746    2749    5164    5165
CTETRA     26282       1    2537    3174    2841    3073
CTETRA     26283       1     956     958     899    2029
CTETRA     26284       1    2923    4997    1850    1265
CTETRA     26285       1    2211    2095    2782    1265
CTETRA     26286       1    2491    5066    5050    5067
CTETRA     26287       1    2094    5679    1438    2491
CTETRA     26288       1    1850    2923    5048    4997
CTETRA     26289       1     582    5065    3296    5068
CTETRA     26290       1    2471    5047     478    5074
CTETRA     26291       1    2471     478    5047    1060
CTETRA     26292       1    1781    5562    1926    5539
CTETRA     26293       1    1782    1927    1785    2096
CTETRA     26294       1    1778    1779    2837    2955
CTETRA     26295       1    1448     353    5347     351
CTETRA     26296       1    1781    1779    1785    5537
CTETRA     26297       1    2096    2091    1782    1927
CTETRA     26298       1     598     311    1087    5523
CTETRA     26299       1    5525    5548    5524     598
CTETRA     26300       1    2936    5317    2543    2816
CTETRA     26301       1     598    1089    1087     311
CTETRA     26302       1     597    1848    5549    5572
CTETRA     26303       1    2042    1927    1089    2100
CTETRA     26304       1     598    5523    1087    5524
CTETRA     26305       1     597    1929     315    2042
CTETRA     26306       1     314    1090    5567    5568
CTETRA     26307       1    2096    1785    1782    1779
CTETRA     26308       1     904    2135    2043    5541
CTETRA     26309       1    2135     904    2091    2142
CTETRA     26310       1    1929     314    1527     316
CTETRA     26311       1    2142    2135    5541    5518
CTETRA     26312       1    2142     904    5541    2135
CTETRA     26313       1    1923    1920    2196    5580
CTETRA     26314       1    2196    5580    1920    5557
CTETRA     26315       1    2196    5557    1920    5558
CTETRA     26316       1    2196    5535    2199    5534
CTETRA     26317       1    5599    5576    5600    1794
CTETRA     26318       1    1793     288     287     286
CTETRA     26319       1    2095    4998    2782    4997
CTETRA     26320       1    2196    2955    5534    2199
CTETRA     26321       1    2903    2914    3667    2295
CTETRA     26322       1    2903    3850    3094    3849
CTETRA     26323       1     352    2022    2761    1963
CTETRA     26324       1    1448     350    2750    2396
CTETRA     26325       1    1360    5325    5324    5326
CTETRA     26326       1    1360    5324    4800    4803
CTETRA     26327       1    1386    1961    4809    1966
CTETRA     26328       1    2038    4804    4803    4801
CTETRA     26329       1    2039    4798    2381    4794
CTETRA     26330       1    1361     351    5319    5323
CTETRA     26331       1    1361    5355    2750    5320
CTETRA     26332       1    5355    1448     351    1361
CTETRA     26333       1     492    1208    5223    5236
CTETRA     26334       1    1441    1208    5222    2077
CTETRA     26335       1    1208    2077    2246    5252
CTETRA     26336       1    1724     491    2794    2299
CTETRA     26337       1    1390    1725    2407    2406
CTETRA     26338       1     491    2299    3577    3588
CTETRA     26339       1     492     490     493    3085
CTETRA     26340       1    2975    3159    1391    3110
CTETRA     26341       1     889     933    2975    1391
CTETRA     26342       1    1806    3152    2935    3158
CTETRA     26343       1    1810    2935    1384    3158
CTETRA     26344       1    1400    4322    4329    4321
CTETRA     26345       1    4302    2971    4320    2072
CTETRA     26346       1    2072    1438    1437    4318
CTETRA     26347       1    1268    1265    2782    4976
CTETRA     26348       1    2782    4976    1265    4997
CTETRA     26349       1    1850    2471    5048    2923
CTETRA     26350       1    2949    4999    5050    5051
CTETRA     26351       1    2491    2071    2949    5066
CTETRA     26352       1    1268    4979    2168    1266
CTETRA     26353       1     236    1989     446    2163
CTETRA     26354       1     241     244    3028     242
CTETRA     26355       1     451    1596    2374    1601
CTETRA     26356       1    2333    1840    2786    1839
CTETRA     26357       1     446    2706    2374    1597
CTETRA     26358       1    1332    1140    1956    1988
CTETRA     26359       1    1300    4212    3014    1828
CTETRA     26360       1    2122    1335    2874    1336
CTETRA     26361       1    2122    1285    2470    1333
CTETRA     26362       1    1300    1828    4201    4212
CTETRA     26363       1    2469    1300    4211    3014
CTETRA     26364       1    2580    1599    4186    4185
CTETRA     26365       1    1285    1757    1758    2453
CTETRA     26366       1    1333    1336    2122    1285
CTETRA     26367       1     253    1463    1462    1842
CTETRA     26368       1     562    1865    1460    1864
CTETRA     26369       1    1477    3044    5359    5406
CTETRA     26370       1    5410    5411    1477    1476
CTETRA     26371       1    1477    1476     562    5410
CTETRA     26372       1     228    1314     223     995
CTETRA     26373       1    2095    2471    5049    5048
CTETRA     26374       1    2045    5419    5443    5420
CTETRA     26375       1    2499    5420    3329    5419
CTETRA     26376       1    2045    1493    1777    2195
CTETRA     26377       1    1777    2195    5489    5466
CTETRA     26378       1     203    1491     205     204
CTETRA     26379       1    2499    3332    5419    3329
CTETRA     26380       1    2195    2837    5489    5488
CTETRA     26381       1    1777    2195    2837    5489
CTETRA     26382       1    1375    5415    3327    3306
CTETRA     26383       1    1368    1367    5439    5440
CTETRA     26384       1    2095    2782    4998    5050
CTETRA     26385       1    3074    1383    2255    2393
CTETRA     26386       1    1363    2367    1491    2508
CTETRA     26387       1    2960    2862    2269    2098
CTETRA     26388       1    2499    2366    2365    3323
CTETRA     26389       1    2254    2348    2253    2255
CTETRA     26390       1    2499    5418    3332    3325
CTETRA     26391       1    1491    2367    2366    3334
CTETRA     26392       1    1480    5455    1481    2342
CTETRA     26393       1    1491    2367    3341    2508
CTETRA     26394       1    2229     598    5501    1482
CTETRA     26395       1     204    3340    3339    2737
CTETRA     26396       1    4997    1850    1265    2095
CTETRA     26397       1    1958    2076    5251    2245
CTETRA     26398       1     629    1257    1826     639
CTETRA     26399       1    1677    1958    1681    1675
CTETRA     26400       1    1259    2246    2076    2245
CTETRA     26401       1    1958    5251    2076    5211
CTETRA     26402       1    1960    2227    2866    5213
CTETRA     26403       1     629    2816    1960    1958
CTETRA     26404       1    2347     639    1257     863
CTETRA     26405       1    1674    2863    5256    5243
CTETRA     26406       1    1675    2248    5250    5257
CTETRA     26407       1    2082    5059    5058    5070
CTETRA     26408       1     582    2467    5064    2471
CTETRA     26409       1     477    2467     478    5069
CTETRA     26410       1    2467     477     900    2103
CTETRA     26411       1    2068    2634     814    3236
CTETRA     26412       1     477     478    5075    5069
CTETRA     26413       1     476     908    5072    5076
CTETRA     26414       1     153    2019    2082     626
CTETRA     26415       1     627     152    3045     626
CTETRA     26416       1    2868    3009    5109    5101
CTETRA     26417       1    1915     326    2579    1413
CTETRA     26418       1    1690    4403    4395    2155
CTETRA     26419       1    4858    1413    2316    2579
CTETRA     26420       1    1688    1689    4856    4857
CTETRA     26421       1    4840    4858    2579    1413
CTETRA     26422       1    2471    5049     582    2095
CTETRA     26423       1    1689    2579    2209    4841
CTETRA     26424       1    2579    4840     326    4841
CTETRA     26425       1    1734    1688    1687    4855
CTETRA     26426       1    1853    1854    1852    4913
CTETRA     26427       1    2204    2111    4848    4850
CTETRA     26428       1    2519    4675    4726    4727
CTETRA     26429       1     641     937    1323     644
CTETRA     26430       1    4674    2599    2363    2519
CTETRA     26431       1    5834    1857    5835    2336
CTETRA     26432       1     404     398    2008     408
CTETRA     26433       1    2110    1937    2111    4476
CTETRA     26434       1    2070    3189    1790    3190
CTETRA     26435       1     814    2070    3189    1790
CTETRA     26436       1    1682    2668    4299    4300
CTETRA     26437       1    1682    2226    4300    4314
CTETRA     26438       1    2226    2861    4310    4316
CTETRA     26439       1    1906    2030    2207    2209
CTETRA     26440       1    5064    2471    5049     582
CTETRA     26441       1    2562    4304    4308    4305
CTETRA     26442       1    2562    2668    4304    4298
CTETRA     26443       1    2562    4306    4298    4304
CTETRA     26444       1     200    2157    1994    2613
CTETRA     26445       1    2098    2960    2243    2618
CTETRA     26446       1    5532    2618    2955    2197
CTETRA     26447       1    2243     499    5553    5552
CTETRA     26448       1    2243    5554    2232    2197
CTETRA     26449       1    2139    2243    5552     499
CTETRA     26450       1     596     315    5570    5569
CTETRA     26451       1    2196    5532    2955    2197
CTETRA     26452       1    1622    1920    1923    1362
CTETRA     26453       1    3030    3870    3049    3099
CTETRA     26454       1    3030     793    3891    2664
CTETRA     26455       1    3030     793    3871    3891
CTETRA     26456       1    1174    3030    3099    2983
CTETRA     26457       1    1433    1431    1430    2856
CTETRA     26458       1    1653    1652    5163    1430
CTETRA     26459       1     186    3213    3087    3214
CTETRA     26460       1    1653    1652    5172    5163
CTETRA     26461       1    2535    1652    5166    5172
CTETRA     26462       1    2749    1430    5163    5154
CTETRA     26463       1    2539    2261    3206    3229
CTETRA     26464       1    3414    1469    3412    2808
CTETRA     26465       1    1592    1469    2688    3414
CTETRA     26466       1    1203    2500    1856    1947
CTETRA     26467       1    1947    1388    1002    1945
CTETRA     26468       1    1202    2808    2592    1469
CTETRA     26469       1    2808    2592    3411    3399
CTETRA     26470       1    1592    2688    3408    3414
CTETRA     26471       1    2958      17    1946    1947
CTETRA     26472       1    2539    1904    2261    3229
CTETRA     26473       1    2117    2808    3399    2592
CTETRA     26474       1     653    2603     654     655
CTETRA     26475       1    2532    5864    5299    3422
CTETRA     26476       1    2602    1914     663     842
CTETRA     26477       1    1464    1551    1803    1800
CTETRA     26478       1     696    2123    1832     980
CTETRA     26479       1    2937    1803    4238    4237
CTETRA     26480       1    1551    1800    4239    4238
CTETRA     26481       1    1594    1545    3527    3524
CTETRA     26482       1    1495    1499    3532    1497
CTETRA     26483       1    1337    4241    4242    4244
CTETRA     26484       1    1460     963     218     254
CTETRA     26485       1     979    2682    2424    2695
CTETRA     26486       1    1255    2682     979    2693
CTETRA     26487       1    2379    2731    4518    2789
CTETRA     26488       1    1577    5361    2215    5362
CTETRA     26489       1    1593    1594    3523    1499
CTETRA     26490       1     613    2031    2149    2451
CTETRA     26491       1    2208    2451    4911    2741
CTETRA     26492       1    1854    4907    2860    4906
CTETRA     26493       1    2451    2177    4911    2741
CTETRA     26494       1    1668    1399    2165     606
CTETRA     26495       1    2451    4911    2177    4917
CTETRA     26496       1    1303    1266    2741    2612
CTETRA     26497       1    1457    1582    1581    1583
CTETRA     26498       1    1718    3140    3134    3135
CTETRA     26499       1    1720    3138    3133    3134
CTETRA     26500       1    2570    2572    3185    2308
CTETRA     26501       1    1457     890    1453    2948
CTETRA     26502       1    2572    2308    3003    3145
CTETRA     26503       1    2857    3135    3003    3151
CTETRA     26504       1    1581    1582    1456    2854
CTETRA     26505       1     525     527     524    1809
CTETRA     26506       1    2277    1277     527    2712
CTETRA     26507       1    2996     323    4127    4126
CTETRA     26508       1    3130    1780    1813    3129
CTETRA     26509       1    1484    4150    4134    4153
CTETRA     26510       1    1818     645    1492    1484
CTETRA     26511       1     100     525    1805     101
CTETRA     26512       1    2440    2996    4126     323
CTETRA     26513       1    2804    4168    1116    1118
CTETRA     26514       1    2415    1441    5208    1444
CTETRA     26515       1    5207    3085    5233    2415
CTETRA     26516       1    2514    3589    2991    3591
CTETRA     26517       1    3023    3543    3061    3552
CTETRA     26518       1    1109    1108    1112     357
CTETRA     26519       1    1441    5222    1208    5236
CTETRA     26520       1    1441    5209    1444    2077
CTETRA     26521       1    2991    2918    5206    5340
CTETRA     26522       1    2266    1390    3575    3586
CTETRA     26523       1    2872    3080    3754    3757
CTETRA     26524       1    1335    3754    3080    2124
CTETRA     26525       1    1832    2123    2871     980
CTETRA     26526       1    2777    1733    2607     973
CTETRA     26527       1    1600    1827    4202    1828
CTETRA     26528       1    1339    4226    2469    4210
CTETRA     26529       1    1333    1285    1299    1284
CTETRA     26530       1      54    1215      58    1537
CTETRA     26531       1     102    2712    2378    2714
CTETRA     26532       1    2081    5177    5168    5167
CTETRA     26533       1    1807    3164    1387    1384
CTETRA     26534       1    2944    3167    3156    3166
CTETRA     26535       1    1807    1387    3165    3161
CTETRA     26536       1    1807    3164    1384    3168
CTETRA     26537       1    2310    1807    1384    3168
CTETRA     26538       1    2944    1807    2310    3167
CTETRA     26539       1    2944    3149    3150    3167
CTETRA     26540       1    2348    2268    2269    2097
CTETRA     26541       1    2195    5440    1367    1368
CTETRA     26542       1    2365    2366    2367    3337
CTETRA     26543       1    3205    3204    1657    2859
CTETRA     26544       1    5470    5447     552    1494
CTETRA     26545       1    2255    2622    3074    2367
CTETRA     26546       1     888    1806    1458    2935
CTETRA     26547       1     526     527    1276    1277
CTETRA     26548       1    2373    2712    2626    5201
CTETRA     26549       1     527    1277    5197    5201
CTETRA     26550       1     875     889     876    2084
CTETRA     26551       1    2212    5204    5198    5195
CTETRA     26552       1    2950    1813    5205    5203
CTETRA     26553       1    3161    1814    1807    1387
CTETRA     26554       1    2944    3166    1807    3167
CTETRA     26555       1    1814    3166    2944    3155
CTETRA     26556       1    2584    5394    5393    5309
CTETRA     26557       1    2942    1899    5400    2215
CTETRA     26558       1    2583    5393    5394    5392
CTETRA     26559       1    2951    5392    5394    5391
CTETRA     26560       1    2102    5392    5391    5395
CTETRA     26561       1    2942    2215    5388    5362
CTETRA     26562       1    2942    5400    1899    5389
CTETRA     26563       1    2155    1602    4394    1603
CTETRA     26564       1     584     327     328     934
CTETRA     26565       1    1913    2316    1405    1413
CTETRA     26566       1    4393     517    4358    4394
CTETRA     26567       1    2813    1688    2155    4403
CTETRA     26568       1    4431    4430    2481    4434
CTETRA     26569       1    2234    4849    1405    4845
CTETRA     26570       1    4416    2809     140    4408
CTETRA     26571       1    1602    1604    4408    4400
CTETRA     26572       1    1913    2316    2234    1405
CTETRA     26573       1    4749    1835    4706     970
CTETRA     26574       1    5248    2776    1835    4767
CTETRA     26575       1    1542    5240    1058    5239
CTETRA     26576       1    5240    1835    2441    5241
CTETRA     26577       1    4766    2637    4760    2776
CTETRA     26578       1     970    2637    2477    4743
CTETRA     26579       1    2441    5215    5241    5214
CTETRA     26580       1     952    2637    1540    2242
CTETRA     26581       1     947    2441    2131    1058
CTETRA     26582       1    1641    1361    5323     351
CTETRA     26583       1    1641    1693     351    5323
CTETRA     26584       1    1360    5324    4803    5327
CTETRA     26585       1    1370    1504    1371    2770
CTETRA     26586       1    1641    1693    5322    4786
CTETRA     26587       1    2039    2590    4794    2381
CTETRA     26588       1    1692    1826     353    2543
CTETRA     26589       1    1692     351    1693    2543
CTETRA     26590       1    2589    2039    2590    4794
CTETRA     26591       1    1111    1308     860    1311
CTETRA     26592       1    1386    1372    2523    4806
CTETRA     26593       1    2319    4330    4338    4331
CTETRA     26594       1    2260    3382    2182    5714
CTETRA     26595       1     612    2493    2154    1680
CTETRA     26596       1    2165    2576    4923    1679
CTETRA     26597       1    2137    1680    2154    4335
CTETRA     26598       1    1032    1902     498    1904
CTETRA     26599       1    2165    2858    1668    4919
CTETRA     26600       1    4335    2493    4336    4352
CTETRA     26601       1    1263    2211     601    1268
CTETRA     26602       1    1679    1401    4347    4322
CTETRA     26603       1    1680    1401    4351    4347
CTETRA     26604       1    2148    1679    2576    2137
CTETRA     26605       1    2137    1680    1679    2576
CTETRA     26606       1    2031    2451    2741    2177
CTETRA     26607       1     612    2137    1680    2154
CTETRA     26608       1    2576    2149    4917    4924
CTETRA     26609       1    4900    4936    2741    2177
CTETRA     26610       1    2165    4919    1668    4329
CTETRA     26611       1    1033     668    1432    1663
CTETRA     26612       1    2027    2105    3298    5681
CTETRA     26613       1    1003    2849    1061    1059
CTETRA     26614       1     190     193     195     191
CTETRA     26615       1    2094    2104     899    2105
CTETRA     26616       1     648     209    2114     654
CTETRA     26617       1    2048    1857    2112    2336
CTETRA     26618       1     648    2049    4438    4444
CTETRA     26619       1    1858     945    1938     940
CTETRA     26620       1    2338    2610    4438    4436
CTETRA     26621       1    1324    2973    1319    1318
CTETRA     26622       1     648     647     654    4443
CTETRA     26623       1    2050    2427     642    4421
CTETRA     26624       1     625     201     202      16
CTETRA     26625       1     643    2610     648    2049
CTETRA     26626       1    2049    2114    4439    4444
CTETRA     26627       1    2363    4478    2111    4850
CTETRA     26628       1    1877    3196    3195    3211
CTETRA     26629       1    2204    2111    1937    4848
CTETRA     26630       1    4849    4846    2234    2204
CTETRA     26631       1    3042     141     140    2481
CTETRA     26632       1    2599    4437    2338    4440
CTETRA     26633       1    1903    1909    1171    1663
CTETRA     26634       1    2481    2482    4432    4430
CTETRA     26635       1    4434    4430    2481    4432
CTETRA     26636       1    1547    2358    3534    3535
CTETRA     26637       1    2102    2951    5391    5392
CTETRA     26638       1    2106    3511    2107    3496
CTETRA     26639       1    1252    1255     979    2429
CTETRA     26640       1    1499    3532    1497    3534
CTETRA     26641       1     949    1595     430    1495
CTETRA     26642       1    2951    3496    2327    3497
CTETRA     26643       1    2102    2583    5392    2942
CTETRA     26644       1    2603     654    4443    4446
CTETRA     26645       1     648     647    4443    4442
CTETRA     26646       1     644     647     642    2427
CTETRA     26647       1     647    4420    2427    4419
CTETRA     26648       1     644    2427    2811     647
CTETRA     26649       1     648    2610     642    4442
CTETRA     26650       1     642    2427     647    4420
CTETRA     26651       1    2801    4419    4418    4426
CTETRA     26652       1    2341    2973    3363    1319
CTETRA     26653       1    1911      68      67     935
CTETRA     26654       1    1323    2973    1324    1318
CTETRA     26655       1    2109    2235    2334    3423
CTETRA     26656       1     655     647    2603     654
CTETRA     26657       1    2109    2235    3423    3429
CTETRA     26658       1    2973    1319    1318    3430
CTETRA     26659       1    1992    2036    3262    2037
CTETRA     26660       1    2528    3286    2028    2037
CTETRA     26661       1    2528    1992    3261    2037
CTETRA     26662       1    1992    3262    2036    3271
CTETRA     26663       1    2033    1999     927    2000
CTETRA     26664       1    2447    1764    2075    1774
CTETRA     26665       1    2840    2838    3940    3939
CTETRA     26666       1    1991    3267    3270    3260
CTETRA     26667       1    2904    2905    3283    3455
CTETRA     26668       1    2005    1992    2036    3271
CTETRA     26669       1     475     908     476     478
CTETRA     26670       1     152     475    2573     898
CTETRA     26671       1    2466    2104    3294    3302
CTETRA     26672       1    2466     898    2781    2104
CTETRA     26673       1    2466    2104    3302    2028
CTETRA     26674       1    2036    3279    3263    2035
CTETRA     26675       1     152     626     908    3045
CTETRA     26676       1    2103    2781    2104    3294
CTETRA     26677       1     153    2019    1440    3012
CTETRA     26678       1    2569    2144     570    1583
CTETRA     26679       1     568     567     572     574
CTETRA     26680       1    2569    1719    2567    1720
CTETRA     26681       1    1057    3131    2568    3142
CTETRA     26682       1    1065    4029    4034    4030
CTETRA     26683       1    2567    4034    4033    4038
CTETRA     26684       1    2568    2571    3131     776
CTETRA     26685       1    1043    1066    4018    1030
CTETRA     26686       1    2417    2021    2450    5321
CTETRA     26687       1    1963    1975    2038    1361
CTETRA     26688       1    2770    5315    5405    5397
CTETRA     26689       1    1963    2038    1975    1961
CTETRA     26690       1    2799    2032    4823    4825
CTETRA     26691       1    2119     355    2120     470
CTETRA     26692       1    1415    2163    1416     839
CTETRA     26693       1    1360    5320    2021    5325
CTETRA     26694       1    1085    1177    1179    2972
CTETRA     26695       1     957    1995    1994     982
CTETRA     26696       1    2905     982    1994    3457
CTETRA     26697       1    5682    2108    4311    5683
CTETRA     26698       1    2963    3439    2905    1994
CTETRA     26699       1    2963    3439    3448    3446
CTETRA     26700       1     193    2861    1439    2108
CTETRA     26701       1     410     411     412    2081
CTETRA     26702       1    2829    1067    1222    1017
CTETRA     26703       1    1435     409     412    2713
CTETRA     26704       1    2307    2841    3182    2147
CTETRA     26705       1    2841    3073    3174    3178
CTETRA     26706       1    2537    3175    3173    3174
CTETRA     26707       1    1257    2347    4777    4782
CTETRA     26708       1    2866    5213    2227    4793
CTETRA     26709       1    2227    4790    1257    4781
CTETRA     26710       1    1257    4776    4777     864
CTETRA     26711       1     863     639    1257     864
CTETRA     26712       1    1257    4790    2347    4782
CTETRA     26713       1    1693     351    5323    5318
CTETRA     26714       1    1960    2227    5331    4791
CTETRA     26715       1    1417    1663    5146    1432
CTETRA     26716       1    2539    2859    3233    3205
CTETRA     26717       1    1903     237    1877    2430
$*
$* PROPERTY CARDS
$*
$*  NX Property: PSOLID1
PSOLID         1       1       0                           SMECH
$*
$* MATERIAL CARDS
$*
$*  NX Material: Aluminum_2014
MAT1           17.3119+7        0.3300002.7940-62.1355-5
MATT1          1       1               2               3
TABLEM1        1                                                        +
+        20.00007.3119+7 21.11007.3119+7 23.89007.3119+7 37.78007.3119+7+
+        51.67007.3119+7 65.56007.2429+7 79.44007.2429+7 93.33007.1739+7+
+       107.22007.1049+7121.11007.0359+7135.00006.9670+7148.89006.8980+7+
+       162.78006.8290+7176.67006.6910+7190.56006.6221+7204.44006.4841+7+
+       218.33006.3461+7232.22006.1392+7246.11006.0012+7260.00005.8633+7+
+       273.89005.7253+7287.78005.5184+7301.67005.3804+7315.56005.1735+7+
+       329.44004.9665+7343.33004.7596+7357.22004.6216+7371.11004.4147+7+
+           ENDT
TABLEM1        2                                                        +
+        20.00000.330000 21.11000.330000    ENDT
TABLEM1        3                                                        +
+        20.00002.1600-5 93.33002.2500-5107.22002.2662-5121.11002.2824-5+
+       135.00002.2968-5148.89002.3130-5162.78002.3274-5176.67002.3418-5+
+       190.56002.3544-5204.44002.3688-5218.33002.3814-5232.22002.3958-5+
+       246.11002.4066-5260.00002.4192-5273.89002.4300-5287.78002.4408-5+
+       301.67002.4498-5315.56002.4606-5329.44002.4696-5343.33002.4786-5+
+       357.22002.4876-5371.11002.4984-5385.00002.5110-5398.89002.5254-5+
+       412.78002.5398-5426.67002.5560-5    ENDT
$*
$* LOAD AND CONSTRAINT CARDS
$*
$*  NX Load and Constraint: Fixed(1)
SPC            1    4060  123456  0.0000
SPC            1    4061  123456  0.0000
SPC            1    4062  123456  0.0000
SPC            1    4063  123456  0.0000
SPC            1    4064  123456  0.0000
SPC            1    4065  123456  0.0000
SPC            1    4066  123456  0.0000
SPC            1    4067  123456  0.0000
SPC            1    4068  123456  0.0000
SPC            1    4069  123456  0.0000
SPC            1    4070  123456  0.0000
SPC            1    4071  123456  0.0000
SPC            1    4072  123456  0.0000
SPC            1    4073  123456  0.0000
SPC            1    4074  123456  0.0000
SPC            1    4075  123456  0.0000
SPC            1    4076  123456  0.0000
SPC            1    4077  123456  0.0000
SPC            1    4078  123456  0.0000
SPC            1    4079  123456  0.0000
SPC            1    4080  123456  0.0000
SPC            1    4081  123456  0.0000
SPC            1    4082  123456  0.0000
SPC            1    4083  123456  0.0000
SPC            1    4084  123456  0.0000
SPC            1    4085  123456  0.0000
SPC            1    4086  123456  0.0000
SPC            1    4087  123456  0.0000
SPC            1    4088  123456  0.0000
SPC            1    4089  123456  0.0000
SPC            1    4090  123456  0.0000
SPC            1    4091  123456  0.0000
SPC            1    4092  123456  0.0000
SPC            1    4093  123456  0.0000
SPC            1    4094  123456  0.0000
SPC            1    4095  123456  0.0000
SPC            1    4096  123456  0.0000
SPC            1    4097  123456  0.0000
SPC            1    4098  123456  0.0000
SPC            1    4099  123456  0.0000
SPC            1    4100  123456  0.0000
SPC            1    4101  123456  0.0000
SPC            1    4102  123456  0.0000
SPC            1    4103  123456  0.0000
SPC            1    4104  123456  0.0000
SPC            1    4105  123456  0.0000
SPC            1    4106  123456  0.0000
SPC            1    4107  123456  0.0000
SPC            1    4108  123456  0.0000
SPC            1    4109  123456  0.0000
SPC            1    4110  123456  0.0000
SPC            1    4111  123456  0.0000
SPC            1    4112  123456  0.0000
SPC            1    4113  123456  0.0000
SPC            1    4114  123456  0.0000
SPC            1    4115  123456  0.0000
SPC            1    4116  123456  0.0000
SPC            1    4117  123456  0.0000
SPC            1    4118  123456  0.0000
SPC            1    4119  123456  0.0000
SPC            1    4120  123456  0.0000
SPC            1    4121  123456  0.0000
SPC            1    4122  123456  0.0000
SPC            1    4123  123456  0.0000
SPC            1    4124  123456  0.0000
SPC            1    4125  123456  0.0000
SPC            1    4126  123456  0.0000
SPC            1    4127  123456  0.0000
SPC            1    4128  123456  0.0000
SPC            1    4129  123456  0.0000
SPC            1    4130  123456  0.0000
SPC            1    4131  123456  0.0000
SPC            1    4132  123456  0.0000
SPC            1    4133  123456  0.0000
SPC            1    4134  123456  0.0000
SPC            1    4135  123456  0.0000
SPC            1    4136  123456  0.0000
SPC            1    4137  123456  0.0000
SPC            1    4138  123456  0.0000
SPC            1    4139  123456  0.0000
SPC            1    4140  123456  0.0000
SPC            1    4141  123456  0.0000
SPC            1    4142  123456  0.0000
SPC            1    4143  123456  0.0000
SPC            1    4144  123456  0.0000
SPC            1    4145  123456  0.0000
SPC            1    4146  123456  0.0000
SPC            1    4147  123456  0.0000
SPC            1    4148  123456  0.0000
SPC            1    4149  123456  0.0000
SPC            1    4150  123456  0.0000
SPC            1    4151  123456  0.0000
SPC            1    4152  123456  0.0000
SPC            1    4153  123456  0.0000
SPC            1    4154  123456  0.0000
SPC            1    4155  123456  0.0000
SPC            1    4156  123456  0.0000
SPC            1    4157  123456  0.0000
SPC            1    4158  123456  0.0000
SPC            1    4159  123456  0.0000
SPC            1    4160  123456  0.0000
SPC            1    4161  123456  0.0000
SPC            1    4162  123456  0.0000
SPC            1    4163  123456  0.0000
SPC            1    4164  123456  0.0000
SPC            1    4165  123456  0.0000
SPC            1    4166  123456  0.0000
SPC            1    4167  123456  0.0000
SPC            1    4168  123456  0.0000
SPC            1    4169  123456  0.0000
SPC            1    4170  123456  0.0000
SPC            1    4171  123456  0.0000
SPC            1    4172  123456  0.0000
SPC            1    4173  123456  0.0000
SPC            1    4174  123456  0.0000
SPC            1    4175  123456  0.0000
SPC            1    4176  123456  0.0000
SPC            1    4177  123456  0.0000
SPC            1    4178  123456  0.0000
SPC            1    4179  123456  0.0000
SPC            1    4180  123456  0.0000
SPC            1    4181  123456  0.0000
SPC            1    4182  123456  0.0000
SPC            1    4183  123456  0.0000
SPC            1    4184  123456  0.0000
SPC            1    4185  123456  0.0000
SPC            1    4186  123456  0.0000
SPC            1    4187  123456  0.0000
SPC            1    4188  123456  0.0000
SPC            1    4189  123456  0.0000
SPC            1    4190  123456  0.0000
SPC            1    4191  123456  0.0000
SPC            1    4192  123456  0.0000
SPC            1    4193  123456  0.0000
SPC            1    4194  123456  0.0000
SPC            1    4195  123456  0.0000
SPC            1    4196  123456  0.0000
SPC            1    4197  123456  0.0000
SPC            1    4198  123456  0.0000
SPC            1    4199  123456  0.0000
SPC            1    4200  123456  0.0000
SPC            1    4201  123456  0.0000
SPC            1    4202  123456  0.0000
SPC            1    4203  123456  0.0000
SPC            1    4204  123456  0.0000
SPC            1    4205  123456  0.0000
SPC            1    4206  123456  0.0000
SPC            1    4207  123456  0.0000
SPC            1    4208  123456  0.0000
SPC            1    4209  123456  0.0000
SPC            1    4210  123456  0.0000
SPC            1    4211  123456  0.0000
SPC            1    4212  123456  0.0000
SPC            1    4213  123456  0.0000
SPC            1    4214  123456  0.0000
SPC            1    4215  123456  0.0000
SPC            1    4216  123456  0.0000
SPC            1    4217  123456  0.0000
SPC            1    4218  123456  0.0000
SPC            1    4219  123456  0.0000
SPC            1    4220  123456  0.0000
SPC            1    4221  123456  0.0000
SPC            1    4222  123456  0.0000
SPC            1    4223  123456  0.0000
SPC            1    4224  123456  0.0000
SPC            1    4225  123456  0.0000
SPC            1    4226  123456  0.0000
SPC            1    4227  123456  0.0000
SPC            1    4228  123456  0.0000
SPC            1    4229  123456  0.0000
SPC            1    4230  123456  0.0000
SPC            1    4231  123456  0.0000
SPC            1    4232  123456  0.0000
SPC            1    4233  123456  0.0000
SPC            1    4234  123456  0.0000
SPC            1    4235  123456  0.0000
SPC            1    4236  123456  0.0000
SPC            1    4237  123456  0.0000
SPC            1    4238  123456  0.0000
SPC            1    4239  123456  0.0000
SPC            1    4240  123456  0.0000
SPC            1    4241  123456  0.0000
SPC            1    4242  123456  0.0000
SPC            1    4243  123456  0.0000
SPC            1    4244  123456  0.0000
SPC            1    4245  123456  0.0000
SPC            1    4246  123456  0.0000
SPC            1    4247  123456  0.0000
SPC            1    4248  123456  0.0000
SPC            1    4249  123456  0.0000
SPC            1    4250  123456  0.0000
SPC            1    4251  123456  0.0000
SPC            1    4252  123456  0.0000
SPC            1    4253  123456  0.0000
SPC            1    4254  123456  0.0000
SPC            1    4255  123456  0.0000
SPC            1    4256  123456  0.0000
SPC            1    4257  123456  0.0000
SPC            1    4258  123456  0.0000
SPC            1    4259  123456  0.0000
SPC            1    4260  123456  0.0000
SPC            1    4261  123456  0.0000
SPC            1    4262  123456  0.0000
SPC            1    4263  123456  0.0000
SPC            1    4264  123456  0.0000
SPC            1    4265  123456  0.0000
SPC            1    4266  123456  0.0000
SPC            1    4267  123456  0.0000
SPC            1    4268  123456  0.0000
SPC            1    4269  123456  0.0000
SPC            1    4270  123456  0.0000
SPC            1    4271  123456  0.0000
SPC            1    4272  123456  0.0000
SPC            1    4273  123456  0.0000
SPC            1    4274  123456  0.0000
SPC            1    4275  123456  0.0000
SPC            1    4276  123456  0.0000
SPC            1    4277  123456  0.0000
SPC            1    4278  123456  0.0000
SPC            1    4279  123456  0.0000
SPC            1    4280  123456  0.0000
SPC            1    4281  123456  0.0000
SPC            1    4282  123456  0.0000
SPC            1    4283  123456  0.0000
SPC            1    4284  123456  0.0000
SPC            1    4285  123456  0.0000
SPC            1    4286  123456  0.0000
SPC            1    4287  123456  0.0000
SPC            1    4288  123456  0.0000
SPC            1    4289  123456  0.0000
SPC            1    5619  123456  0.0000
SPC            1    5620  123456  0.0000
SPC            1    5621  123456  0.0000
SPC            1    5622  123456  0.0000
SPC            1    5623  123456  0.0000
SPC            1    5624  123456  0.0000
SPC            1    5625  123456  0.0000
SPC            1    5731  123456  0.0000
SPC            1    5732  123456  0.0000
SPC            1    5733  123456  0.0000
SPC            1    5734  123456  0.0000
SPC            1    5735  123456  0.0000
SPC            1    5736  123456  0.0000
SPC            1    5737  123456  0.0000
SPC            1    5738  123456  0.0000
SPC            1    5739  123456  0.0000
SPC            1    5740  123456  0.0000
SPC            1    5741  123456  0.0000
SPC            1    5742  123456  0.0000
SPC            1    5743  123456  0.0000
SPC            1    5744  123456  0.0000
SPC            1    5745  123456  0.0000
SPC            1    5746  123456  0.0000
SPC            1    5747  123456  0.0000
SPC            1    5748  123456  0.0000
SPC            1    5749  123456  0.0000
SPC            1    5750  123456  0.0000
SPC            1    5751  123456  0.0000
SPC            1    5752  123456  0.0000
SPC            1    5753  123456  0.0000
SPC            1    5754  123456  0.0000
SPC            1    5755  123456  0.0000
SPC            1    5756  123456  0.0000
SPC            1    5757  123456  0.0000
SPC            1    5758  123456  0.0000
SPC            1    5759  123456  0.0000
SPC            1    5782  123456  0.0000
SPC            1    5783  123456  0.0000
SPC            1    5784  123456  0.0000
SPC            1    5785  123456  0.0000
SPC            1    5786  123456  0.0000
SPC            1    5787  123456  0.0000
SPC            1    5788  123456  0.0000
SPC            1    5789  123456  0.0000
SPC            1    5790  123456  0.0000
SPC            1    5791  123456  0.0000
SPC            1    5792  123456  0.0000
SPC            1    5793  123456  0.0000
SPC            1    5794  123456  0.0000
SPC            1    5795  123456  0.0000
SPC            1    5796  123456  0.0000
SPC            1    5797  123456  0.0000
SPC            1    5798  123456  0.0000
SPC            1    5799  123456  0.0000
SPC            1    5800  123456  0.0000
SPC            1    5801  123456  0.0000
SPC            1    5802  123456  0.0000
SPC            1    5803  123456  0.0000
SPC            1    5804  123456  0.0000
SPC            1    5805  123456  0.0000
SPC            1    5806  123456  0.0000
SPC            1    5807  123456  0.0000
SPC            1    5808  123456  0.0000
SPC            1    5809  123456  0.0000
SPC            1    5810  123456  0.0000
SPC            1    5892  123456  0.0000
SPC            1    5893  123456  0.0000
SPC            1    5894  123456  0.0000
SPC            1    5895  123456  0.0000
SPC            1    5896  123456  0.0000
SPC            1    5897  123456  0.0000
SPC            1    5898  123456  0.0000
SPC            1    5908  123456  0.0000
SPC            1    5909  123456  0.0000
SPC            1    5914  123456  0.0000
SPC            1    5916  123456  0.0000
$*  NX Load and Constraint: Force(1)
FORCE          2    3306       039856.83  0.0000  0.0000-1.00000
FORCE          2    3307       039080.68  0.0000  0.0000-1.00000
FORCE          2    3308       040181.04  0.0000  0.0000-1.00000
FORCE          2    3309       040126.33  0.0000  0.0000-1.00000
FORCE          2    3310       039006.91  0.0000  0.0000-1.00000
FORCE          2    3311       039828.92  0.0000  0.0000-1.00000
FORCE          2    3312       039094.23  0.0000  0.0000-1.00000
FORCE          2    3313       022257.01  0.0000  0.0000-1.00000
FORCE          2    3314       039321.07  0.0000  0.0000-1.00000
FORCE          2    3315       022185.81  0.0000  0.0000-1.00000
FORCE          2    3316       038869.55  0.0000  0.0000-1.00000
FORCE          2    3317       039134.74  0.0000  0.0000-1.00000
FORCE          2    3318       037168.79  0.0000  0.0000-1.00000
FORCE          2    3319       016708.85  0.0000  0.0000-1.00000
FORCE          2    3320       039875.24  0.0000  0.0000-1.00000
FORCE          2    3321       039077.95  0.0000  0.0000-1.00000
FORCE          2    3322       040141.49  0.0000  0.0000-1.00000
FORCE          2    3323       040158.05  0.0000  0.0000-1.00000
FORCE          2    3324       039022.06  0.0000  0.0000-1.00000
FORCE          2    3325       022201.94  0.0000  0.0000-1.00000
FORCE          2    3326       038944.17  0.0000  0.0000-1.00000
FORCE          2    3327       039209.60  0.0000  0.0000-1.00000
FORCE          2    3328       039033.24  0.0000  0.0000-1.00000
FORCE          2    3329       022243.73  0.0000  0.0000-1.00000
FORCE          2    3330       039271.64  0.0000  0.0000-1.00000
FORCE          2    3331       037166.81  0.0000  0.0000-1.00000
FORCE          2    3332       016707.23  0.0000  0.0000-1.00000
FORCE          2    3333       039558.63  0.0000  0.0000-1.00000
FORCE          2    3334       039794.21  0.0000  0.0000-1.00000
FORCE          2    3335       039558.47  0.0000  0.0000-1.00000
FORCE          2    3336       039674.15  0.0000  0.0000-1.00000
FORCE          2    3337       039678.52  0.0000  0.0000-1.00000
FORCE          2    3338       039474.35  0.0000  0.0000-1.00000
FORCE          2    3339       039181.82  0.0000  0.0000-1.00000
FORCE          2    3340       040381.03  0.0000  0.0000-1.00000
FORCE          2    3341       040327.31  0.0000  0.0000-1.00000
FORCE          2    3342       039142.83  0.0000  0.0000-1.00000
FORCE          2    3343       022252.93  0.0000  0.0000-1.00000
FORCE          2    3344       039100.49  0.0000  0.0000-1.00000
FORCE          2    3345       039303.52  0.0000  0.0000-1.00000
FORCE          2    3346       039095.93  0.0000  0.0000-1.00000
FORCE          2    3347       022274.99  0.0000  0.0000-1.00000
FORCE          2    3348       039297.61  0.0000  0.0000-1.00000
FORCE          2    3349       037292.71  0.0000  0.0000-1.00000
FORCE          2    3350       016733.47  0.0000  0.0000-1.00000
FORCE          2    5685       025116.72  0.0000  0.0000-1.00000
FORCE          2    5686       011138.12  0.0000  0.0000-1.00000
FORCE          2    5687       018824.09  0.0000  0.0000-1.00000
FORCE          2    5688       018800.42  0.0000  0.0000-1.00000
FORCE          2    5689       011117.78  0.0000  0.0000-1.00000
FORCE          2    5690       025047.34  0.0000  0.0000-1.00000
FORCE          2    5691       011987.98  0.0000  0.0000-1.00000
FORCE          2    5692       011977.76  0.0000  0.0000-1.00000
FORCE          2    5693       025089.25  0.0000  0.0000-1.00000
FORCE          2    5694       011130.15  0.0000  0.0000-1.00000
FORCE          2    5695       018814.81  0.0000  0.0000-1.00000
FORCE          2    5696       018812.09  0.0000  0.0000-1.00000
FORCE          2    5697       011134.30  0.0000  0.0000-1.00000
FORCE          2    5698       025098.82  0.0000  0.0000-1.00000
FORCE          2    5699       012000.84  0.0000  0.0000-1.00000
FORCE          2    5700       011986.60  0.0000  0.0000-1.00000
FORCE          2    5701       025112.27  0.0000  0.0000-1.00000
FORCE          2    5702       011131.84  0.0000  0.0000-1.00000
FORCE          2    5703       018817.64  0.0000  0.0000-1.00000
FORCE          2    5704       018778.88  0.0000  0.0000-1.00000
FORCE          2    5705       011104.16  0.0000  0.0000-1.00000
FORCE          2    5706       025013.53  0.0000  0.0000-1.00000
FORCE          2    5707       011986.19  0.0000  0.0000-1.00000
FORCE          2    5912       011981.53  0.0000  0.0000-1.00000
ENDDATA 58072be6
